Created on Wed Sep 17 22:56:13 2025 

        2268 atoms
        2592 bonds
        4860 angles
        4320 dihedrals
        2592 impropers

           6 atom types
           6 bond types
           9 angle types
           3 dihedral types
           1 improper types
           0.000000  50.316000 xlo xhi
           0.000000  39.435000 ylo yhi
           0.000000  20.541000 zlo zhi
           0.000000   0.000000   0.000000 xy xz yz

Masses

    1    15.999400000 # O_2
    2    12.010700000 # C_R
    3     1.007940000 # H_
    4    51.996100000 # Cr6f3
    5    15.999400000 # O_3
    6     1.007940000 # H_

Bond Coeffs

    1      714.557442        1.269010  # O_2 C_R
    2      238.657670        1.990113  # O_2 Cr6f3
    3      357.440381        1.081418  # C_R H_
    4      462.655054        1.379256  # C_R C_R
    5      391.669513        1.458000  # C_R C_R
    6      0.0        0.9572  # O_3 H_

Angle Coeffs

    1              cosine/periodic       81.578102              -1               3 # C_R O_2 Cr6f3
    2              cosine/periodic       57.289016              -1               3 # H_ C_R C_R
    3              cosine/periodic      111.297508              -1               3 # C_R C_R C_R
    4              cosine/periodic       61.480884              -1               3 # Cr6f3 O_2 Cr6f3
    5              cosine/periodic      102.183280              -1               3 # C_R C_R C_R
    6              cosine/periodic      206.778426              -1               3 # O_2 C_R O_2
    7              cosine/periodic      137.714246              -1               3 # O_2 C_R C_R
    8              cosine/periodic      118.191185               1               4 # O_2 Cr6f3 O_2
    9                     harmonic      0.0			   104.52 # H_ O_3 H_

Dihedral Coeffs

    1        6.737110              -1               2 # Cr6f3 O_2 C_R O_2
    2        3.368555              -1               2 # C_R C_R C_R H_
    3        1.250000              -1               2 # C_R C_R C_R O_2

Improper Coeffs

    1        2.000000        1.000000       -1.000000        0.000000               0 # H_ C_R C_R C_R

Atoms

       1      444        1     0.00000    2.85694   11.03865    1.13325
       2      444        2     0.00000    0.59524   12.73751    5.63933
       3      444        3     0.00000    1.02192   12.43543    2.15968
       4      444        1     0.00000   11.24261    4.46562    4.55702
       5      444        2     0.00000    8.95172    6.11873    2.21802
       6      444        3     0.00000    9.45790    5.93260    5.58058
       7      444        1     0.00000    5.56948   11.05087    5.71615
       8      444        2     0.00000    7.78439   12.80928    1.20411
       9      444        3     0.00000    7.35872   12.51509    4.69280
      10      444        1     0.00000   13.95816    4.47390    2.29874
      11      444        2     0.00000   16.25156    6.12347    4.63939
      12      444        3     0.00000   15.76048    5.91840    1.27477
      13      444        1     0.00000   11.24412    2.09163    5.71677
      14      444        2     0.00000    8.98090    0.41367    1.21233
      15      444        3     0.00000    9.48004    0.59153    4.69341
      16      444        1     0.00000    2.86046    8.66505    2.29484
      17      444        2     0.00000    0.60580    6.96619    4.64042
      18      444        3     0.00000    1.02645    7.26117    1.27334
      19      444        1     0.00000   13.96571    2.10110    1.13592
      20      444        2     0.00000   16.23395    0.42038    5.64754
      21      444        3     0.00000   15.78161    0.67276    2.16030
      22      444        1     0.00000    5.57954    8.67452    4.55723
      23      444        2     0.00000    7.80200    6.92439    2.21925
      24      444        3     0.00000    7.47444    7.35226    5.58222
      25      444        1     0.00000   13.96068    2.09636    5.72211
      26      444        2     0.00000   16.21232    0.38765    1.20925
      27      444        3     0.00000   15.81784    0.72876    4.69711
      28      444        1     0.00000    5.57652    8.66939    2.29340
      29      444        2     0.00000    7.86691    7.01312    4.63220
      30      444        3     0.00000    7.35519    7.18861    1.26964
      31      444        1     0.00000   11.25116    2.09282    1.13510
      32      444        2     0.00000    9.02669    0.33599    5.64261
      33      444        3     0.00000    9.39098    0.73073    2.16235
      34      444        1     0.00000    2.86348    8.66466    4.55846
      35      444        2     0.00000    0.60631    6.96107    2.22459
      36      444        3     0.00000    1.02594    7.26945    5.59064
      37      444        1     0.00000    5.57199   11.04653    1.13304
      38      444        2     0.00000    7.80099   12.78522    5.64302
      39      444        3     0.00000    7.32349   12.56439    2.15249
      40      444        1     0.00000   13.96017    4.46838    4.56236
      41      444        2     0.00000   16.20024    6.19327    2.22500
      42      444        3     0.00000   15.85407    5.79182    5.58982
      43      444        1     0.00000    2.85292   11.03786    5.71553
      44      444        2     0.00000    0.60228   12.73987    1.20966
      45      444        3     0.00000    1.01538   12.43662    4.68869
      46      444        1     0.00000   11.24160    4.46404    2.29402
      47      444        2     0.00000    9.01260    6.20194    4.63138
      48      444        3     0.00000    9.34771    5.78433    1.26759
      49      444        1     0.00000    4.21749    8.91901    0.00123
      50      444        1     0.00000   12.60617    2.34559    3.42727
      51      444        1     0.00000   12.60315    4.22033    0.00514
      52      444        1     0.00000    4.21397   10.79139    3.42439
      53      444        2     0.00000    1.19350   12.32107    0.00144
      54      444        2     0.00000    2.38498   11.41446    0.00123
      55      444        2     0.00000    9.57413    5.74252    3.42439
      56      444        2     0.00000   10.76762    4.83828    3.42521
      57      444        2     0.00000    7.23695   12.32817   -0.00144
      58      444        2     0.00000    6.04496   11.42116    0.00082
      59      444        2     0.00000   15.63016    5.74450    3.43261
      60      444        2     0.00000   14.43365    4.84420    3.43137
      61      444        2     0.00000    9.58520    0.81394    0.00452
      62      444        2     0.00000   10.77668    1.72015    0.00370
      63      444        2     0.00000    1.19903    7.38105    3.43117
      64      444        2     0.00000    2.38951    8.28924    3.42768
      65      444        2     0.00000   15.63217    0.82301    0.00185
      66      444        2     0.00000   14.43767    1.72646    0.00349
      67      444        2     0.00000    7.24299    7.38854    3.42624
      68      444        2     0.00000    6.05151    8.29673    3.42542
      69      444        4     0.00000    4.21648    9.85481    1.71332
      70      444        4     0.00000    4.21648    9.85717    5.13648
      71      444        4     0.00000   12.60164    3.28099    5.13915
      72      444        4     0.00000   12.60416    3.28296    1.71620
      73      444        1     0.00000   19.63833   11.03707    1.13489
      74      444        2     0.00000   17.31575   12.66889    5.64508
      75      444        3     0.00000   17.84759   12.49695    2.15865
      76      444        1     0.00000   28.02501    4.47508    4.56462
      77      444        2     0.00000   25.74468    6.14594    2.23240
      78      444        3     0.00000   26.21765    5.91407    5.59742
      79      444        1     0.00000   22.34081   11.04377    5.72108
      80      444        2     0.00000   24.68201   12.63024    1.20761
      81      444        3     0.00000   24.17935   12.43780    4.69177
      82      444        1     0.00000   30.74207    4.48337    2.29525
      83      444        2     0.00000   33.00881    6.16724    4.63549
      84      444        3     0.00000   32.55848    5.90933    1.26923
      85      444        1     0.00000   28.03155    2.10070    5.71923
      86      444        2     0.00000   25.69839    0.50161    1.20309
      87      444        3     0.00000   26.15979    0.74927    4.69136
      88      444        1     0.00000   19.62877    8.66426    2.29731
      89      444        2     0.00000   17.39978    6.93070    4.63816
      90      444        3     0.00000   17.74847    7.32899    1.27395
      91      444        1     0.00000   30.73754    2.11253    1.13078
      92      444        2     0.00000   33.06818    0.49649    5.64734
      93      444        3     0.00000   32.51370    0.63806    2.15413
      94      444        1     0.00000   22.34886    8.66781    4.56709
      95      444        2     0.00000   24.59195    6.94569    2.23342
      96      444        3     0.00000   24.22011    7.31440    5.59886
      97      444        1     0.00000   30.74911    2.11017    5.71820
      98      444        2     0.00000   32.96151    0.37108    1.20535
      99      444        3     0.00000   32.69483    0.86165    4.69896
     100      444        1     0.00000   22.34483    8.65480    2.30347
     101      444        2     0.00000   24.62767    6.99537    4.64843
     102      444        3     0.00000   24.15571    7.22449    1.28299
     103      444        1     0.00000   28.02098    2.11490    1.13468
     104      444        2     0.00000   25.74972    0.43300    5.64179
     105      444        3     0.00000   26.06067    0.88177    2.14941
     106      444        1     0.00000   19.63381    8.66071    4.56113
     107      444        2     0.00000   17.34896    6.99932    2.22418
     108      444        3     0.00000   17.84205    7.20359    5.58756
     109      444        1     0.00000   22.35439   11.02642    1.13920
     110      444        2     0.00000   24.60000   12.73948    5.64220
     111      444        3     0.00000   24.32275   12.24614    2.15372
     112      444        1     0.00000   30.74056    4.48297    4.55907
     113      444        2     0.00000   32.98616    6.19918    2.22007
     114      444        3     0.00000   32.59722    5.85413    5.58612
     115      444        1     0.00000   19.62425   11.03588    5.71779
     116      444        2     0.00000   17.40581   12.77024    1.20884
     117      444        3     0.00000   17.68909   12.30372    4.69711
     118      444        1     0.00000   28.02652    4.48613    2.30141
     119      444        2     0.00000   25.78091    6.19484    4.64761
     120      444        3     0.00000   26.15023    5.82534    1.28176
     121      444        1     0.00000   20.99284    8.90994    0.00431
     122      444        1     0.00000   29.38605    2.35940    3.42521
     123      444        1     0.00000   29.37951    4.23926    0.00349
     124      444        1     0.00000   20.98932   10.78429    3.42768
     125      444        2     0.00000   17.97137   12.31634    0.00205
     126      444        2     0.00000   19.16084   11.40776    0.00308
     127      444        2     0.00000   26.35753    5.75672    3.43897
     128      444        2     0.00000   27.55204    4.85445    3.43507
     129      444        2     0.00000   24.01583   12.31240    0.00801
     130      444        2     0.00000   22.82233   11.40815    0.00719
     131      444        2     0.00000   32.40552    5.76500    3.42788
     132      444        2     0.00000   31.21403    4.85800    3.42747
     133      444        2     0.00000   26.36055    0.82616    0.00267
     134      444        2     0.00000   27.54902    1.73829    0.00267
     135      444        2     0.00000   17.96633    7.38223    3.43055
     136      444        2     0.00000   19.15832    8.28805    3.42953
     137      444        2     0.00000   32.40401    0.83444   -0.00226
     138      444        2     0.00000   31.21152    1.74106   -0.00123
     139      444        2     0.00000   24.01583    7.38539    3.44062
     140      444        2     0.00000   22.82032    8.28766    3.43692
     141      444        4     0.00000   20.99133    9.84574    1.71743
     142      444        4     0.00000   20.98680    9.85205    5.14121
     143      444        4     0.00000   29.38656    3.29203    5.13936
     144      444        4     0.00000   29.38153    3.29953    1.71497
     145      444        1     0.00000   36.41570   11.04141    1.13366
     146      444        2     0.00000   34.12381   12.69925    5.64282
     147      444        3     0.00000   34.59477   12.45988    2.15968
     148      444        1     0.00000   44.79281    4.46089    4.56442
     149      444        2     0.00000   42.59652    6.24335    2.23034
     150      444        3     0.00000   42.85313    5.72123    5.58633
     151      444        1     0.00000   39.13578   11.03865    5.71944
     152      444        2     0.00000   41.33812   12.81046    1.20596
     153      444        3     0.00000   40.93408   12.48788    4.69506
     154      444        1     0.00000   47.51541    4.46286    2.29977
     155      444        2     0.00000   49.77158    6.16093    4.64165
     156      444        3     0.00000   49.35496    5.85058    1.27560
     157      444        1     0.00000   44.79483    2.08532    5.71964
     158      444        2     0.00000   42.49538    0.45902    1.20822
     159      444        3     0.00000   42.96785    0.67158    4.69321
     160      444        1     0.00000   36.41721    8.66939    2.29525
     161      444        2     0.00000   34.15903    6.97171    4.63487
     162      444        3     0.00000   34.54344    7.32308    1.26964
     163      444        1     0.00000   47.50485    2.09005    1.13551
     164      444        2     0.00000   49.76957    0.38646    5.64241
     165      444        3     0.00000   49.30314    0.64082    2.16256
     166      444        1     0.00000   39.12673    8.66426    4.55928
     167      444        2     0.00000   41.44831    7.05019    2.22706
     168      444        3     0.00000   40.86263    7.12985    5.58161
     169      444        1     0.00000   47.51038    2.08572    5.71820
     170      444        2     0.00000   49.74189    0.36320    1.21295
     171      444        3     0.00000   49.34993    0.68775    4.69156
     172      444        1     0.00000   39.13428    8.67136    2.29566
     173      444        2     0.00000   41.33007    6.89205    4.63487
     174      444        3     0.00000   41.07698    7.41733    1.27909
     175      444        1     0.00000   44.78929    2.10504    1.13612
     176      444        2     0.00000   42.54268    0.37897    5.64467
     177      444        3     0.00000   42.87628    0.81394    2.15701
     178      444        1     0.00000   36.41117    8.67491    4.55887
     179      444        2     0.00000   34.13488    7.00484    2.21987
     180      444        3     0.00000   34.58822    7.26117    5.58551
     181      444        1     0.00000   39.13126   11.04377    1.13325
     182      444        2     0.00000   41.36982   12.76866    5.64487
     183      444        3     0.00000   40.87320   12.56991    2.15352
     184      444        1     0.00000   47.50988    4.46286    4.56339
     185      444        2     0.00000   49.77460    6.15423    2.22603
     186      444        3     0.00000   49.34842    5.86359    5.59249
     187      444        1     0.00000   36.41822   11.04772    5.71841
     188      444        2     0.00000   34.16356   12.74776    1.20945
     189      444        3     0.00000   34.51627   12.35853    4.69341
     190      444        1     0.00000   44.80036    4.47587    2.30080
     191      444        2     0.00000   42.48029    6.08719    4.63816
     192      444        3     0.00000   43.06446    6.00595    1.28361
     193      444        1     0.00000   37.77524    8.91901    0.00267
     194      444        1     0.00000   46.14984    2.34244    3.42686
     195      444        1     0.00000   46.15487    4.22152    0.00555
     196      444        1     0.00000   37.77524   10.79297    3.42665
     197      444        2     0.00000   34.74672   12.31752    0.00123
     198      444        2     0.00000   35.94173   11.41486    0.00144
     199      444        2     0.00000   43.13138    5.74923    3.43548
     200      444        2     0.00000   44.32387    4.84341    3.43363
     201      444        2     0.00000   40.79923   12.31989    0.00041
     202      444        2     0.00000   39.60574   11.41604    0.00103
     203      444        2     0.00000   49.18037    5.74055    3.43425
     204      444        2     0.00000   47.98637    4.83670    3.43281
     205      444        2     0.00000   43.13389    0.81394    0.00390
     206      444        2     0.00000   44.32336    1.72331    0.00411
     207      444        2     0.00000   34.74219    7.40156    3.42706
     208      444        2     0.00000   35.93921    8.30028    3.42686
     209      444        2     0.00000   49.17282    0.81118    0.00493
     210      444        2     0.00000   47.98385    1.72134    0.00431
     211      444        2     0.00000   40.79621    7.38736    3.42911
     212      444        2     0.00000   39.60372    8.29318    3.42788
     213      444        4     0.00000   37.77474    9.85638    1.71456
     214      444        4     0.00000   37.77323    9.85638    5.13874
     215      444        4     0.00000   46.15185    3.27389    5.14059
     216      444        4     0.00000   46.15285    3.28336    1.71743
     217      444        1     0.00000    2.85694   24.18667    1.13468
     218      444        2     0.00000    0.52631   25.77984    5.65206
     219      444        3     0.00000    0.99273   25.54718    2.16173
     220      444        1     0.00000   11.24311   17.60891    4.55189
     221      444        2     0.00000    8.97637   19.29397    2.20918
     222      444        3     0.00000    9.42167   19.02384    5.57483
     223      444        1     0.00000    5.57904   24.20323    5.72087
     224      444        2     0.00000    7.85584   25.86897    1.20391
     225      444        3     0.00000    7.35972   25.67495    4.69916
     226      444        1     0.00000   13.95917   17.61285    2.29258
     227      444        2     0.00000   16.21332   19.32000    4.63158
     228      444        3     0.00000   15.82539   18.97770    1.26574
     229      444        1     0.00000   11.24462   15.23966    5.71882
     230      444        2     0.00000    8.93763   13.60862    1.20473
     231      444        3     0.00000    9.34771   13.92568    4.69362
     232      444        1     0.00000    2.87657   21.81347    2.29464
     233      444        2     0.00000    0.57411   20.17455    4.63056
     234      444        3     0.00000    1.12758   20.29759    1.27210
     235      444        1     0.00000   13.97074   15.23887    1.13386
     236      444        2     0.00000   16.17257   13.48243    5.64713
     237      444        3     0.00000   15.86162   13.91148    2.15948
     238      444        1     0.00000    5.59162   21.83003    4.55435
     239      444        2     0.00000    7.83672   20.11422    2.21021
     240      444        3     0.00000    7.45281   20.46085    5.57627
     241      444        1     0.00000   13.96168   15.24202    5.71923
     242      444        2     0.00000   16.25861   13.57944    1.20904
     243      444        3     0.00000   15.71218   13.73048    4.69916
     244      444        1     0.00000    5.59313   21.83477    2.29032
     245      444        2     0.00000    7.85936   20.14300    4.62522
     246      444        3     0.00000    7.41104   20.40919    1.25998
     247      444        1     0.00000   11.25317   15.22743    1.13099
     248      444        2     0.00000    8.95071   13.59127    5.64323
     249      444        3     0.00000    9.31953   13.96551    2.15270
     250      444        1     0.00000    2.87355   21.81860    4.55743
     251      444        2     0.00000    0.66820   20.04836    2.22007
     252      444        3     0.00000    0.95600   20.52986    5.57935
     253      444        1     0.00000    5.57451   24.20560    1.12976
     254      444        2     0.00000    7.80804   25.93679    5.64878
     255      444        3     0.00000    7.44576   25.55309    2.15434
     256      444        1     0.00000   13.96068   17.61285    4.55558
     257      444        2     0.00000   16.23597   19.29200    2.21658
     258      444        3     0.00000   15.78413   19.02936    5.58181
     259      444        1     0.00000    2.86399   24.19061    5.71861
     260      444        2     0.00000    0.58065   25.85950    1.21089
     261      444        3     0.00000    0.87650   25.38194    4.70820
     262      444        1     0.00000   11.24110   17.60102    2.28847
     263      444        2     0.00000    8.99700   19.32118    4.62440
     264      444        3     0.00000    9.38444   18.97652    1.25834
     265      444        1     0.00000    4.22654   22.07256    0.00308
     266      444        1     0.00000   12.60617   15.48534    3.42624
     267      444        1     0.00000   12.60567   17.35574    0.00246
     268      444        1     0.00000    4.22252   23.94769    3.42521
     269      444        2     0.00000    1.18494   25.45884    0.00329
     270      444        2     0.00000    2.38347   24.56051    0.00288
     271      444        2     0.00000    9.57564   18.88503    3.41658
     272      444        2     0.00000   10.76762   17.97763    3.41905
     273      444        2     0.00000    7.24802   25.47422   -0.00370
     274      444        2     0.00000    6.05151   24.57392   -0.00288
     275      444        2     0.00000   15.62916   18.89094    3.42357
     276      444        2     0.00000   14.43415   17.98709    3.42377
     277      444        2     0.00000    9.58218   13.95329    0.00062
     278      444        2     0.00000   10.77718   14.85595   -0.00062
     279      444        2     0.00000    1.21362   20.52947    3.42644
     280      444        2     0.00000    2.40360   21.43923    3.42624
     281      444        2     0.00000   15.63972   13.96117    0.00205
     282      444        2     0.00000   14.44321   14.86305    0.00164
     283      444        2     0.00000    7.25909   20.55194    3.41864
     284      444        2     0.00000    6.06761   21.45934    3.42131
     285      444        4     0.00000    4.22503   23.01032    1.71312
     286      444        4     0.00000    4.22705   23.01072    5.13730
     287      444        4     0.00000   12.60265   16.42586    5.13669
     288      444        4     0.00000   12.60617   16.41995    1.71271
     289      444        1     0.00000   19.63330   24.18194    1.13612
     290      444        2     0.00000   17.37361   25.87133    5.65021
     291      444        3     0.00000   17.80230   25.58819    2.15824
     292      444        1     0.00000   28.01947   17.60812    4.55620
     293      444        2     0.00000   25.78896   19.34602    2.21904
     294      444        3     0.00000   26.14117   18.94970    5.58366
     295      444        1     0.00000   22.35238   24.18391    5.71903
     296      444        2     0.00000   24.61006   25.88868    1.21274
     297      444        3     0.00000   24.13558   25.65523    4.69280
     298      444        1     0.00000   30.73905   17.60063    2.29196
     299      444        2     0.00000   33.00528   19.29279    4.62974
     300      444        3     0.00000   32.57206   19.00885    1.26348
     301      444        1     0.00000   28.01595   15.23532    5.71553
     302      444        2     0.00000   25.82972   13.43826    1.20452
     303      444        3     0.00000   26.17136   13.84366    4.68951
     304      444        1     0.00000   19.64035   21.80637    2.29648
     305      444        2     0.00000   17.36355   20.12486    4.63302
     306      444        3     0.00000   17.81589   20.38750    1.26800
     307      444        1     0.00000   30.73301   15.22546    1.13448
     308      444        2     0.00000   32.97509   13.50649    5.64343
     309      444        3     0.00000   32.60074   13.86298    2.16153
     310      444        1     0.00000   22.35137   21.80953    4.55846
     311      444        2     0.00000   24.64025   20.15286    2.21863
     312      444        3     0.00000   24.15017   20.35714    5.58284
     313      444        1     0.00000   30.73402   15.23177    5.71759
     314      444        2     0.00000   33.01132   13.54947    1.21048
     315      444        3     0.00000   32.52879   13.77149    4.69362
     316      444        1     0.00000   22.35791   21.81820    2.29525
     317      444        2     0.00000   24.59144   20.08464    4.63302
     318      444        3     0.00000   24.24024   20.48175    1.26820
     319      444        1     0.00000   28.01595   15.23216    1.13407
     320      444        2     0.00000   25.75274   13.54158    5.64076
     321      444        3     0.00000   26.30722   13.66265    2.14941
     322      444        1     0.00000   19.63381   21.81071    4.55990
     323      444        2     0.00000   17.38619   20.09726    2.21802
     324      444        3     0.00000   17.77513   20.43719    5.58407
     325      444        1     0.00000   22.34936   24.19258    1.13612
     326      444        2     0.00000   24.58188   25.92260    5.64179
     327      444        3     0.00000   24.18841   25.58898    2.16338
     328      444        1     0.00000   30.73704   17.60497    4.55538
     329      444        2     0.00000   32.99421   19.30738    2.21411
     330      444        3     0.00000   32.59219   18.98164    5.58037
     331      444        1     0.00000   19.63632   24.18312    5.72293
     332      444        2     0.00000   17.38217   25.88750    1.20699
     333      444        3     0.00000   17.79224   25.56768    4.69937
     334      444        1     0.00000   28.02148   17.60930    2.29299
     335      444        2     0.00000   25.74116   19.27938    4.63323
     336      444        3     0.00000   26.22722   19.06879    1.26923
     337      444        1     0.00000   20.99888   22.06349    0.00575
     338      444        1     0.00000   29.37549   15.48179    3.42562
     339      444        1     0.00000   29.37851   17.35179    0.00205
     340      444        1     0.00000   20.99184   23.93468    3.42850
     341      444        2     0.00000   17.97288   25.46594    0.00021
     342      444        2     0.00000   19.16486   24.56012    0.00308
     343      444        2     0.00000   26.35753   18.89410    3.42624
     344      444        2     0.00000   27.54801   17.98473    3.42460
     345      444        2     0.00000   24.01935   25.46870    0.00493
     346      444        2     0.00000   22.82686   24.56248    0.00431
     347      444        2     0.00000   32.40753   18.88148    3.42234
     348      444        2     0.00000   31.21252   17.97644    3.42316
     349      444        2     0.00000   26.35049   13.95250    0.00082
     350      444        2     0.00000   27.54348   14.85714    0.00164
     351      444        2     0.00000   17.96935   20.52749    3.42644
     352      444        2     0.00000   19.16385   21.43332    3.42768
     353      444        2     0.00000   32.40350   13.94816    0.00329
     354      444        2     0.00000   31.20850   14.85201    0.00308
     355      444        2     0.00000   24.02287   20.53578    3.42583
     356      444        2     0.00000   22.82887   21.44002    3.42665
     357      444        4     0.00000   20.99536   22.99968    1.71641
     358      444        4     0.00000   20.99334   22.99691    5.13977
     359      444        4     0.00000   29.37649   16.41955    5.13628
     360      444        4     0.00000   29.37700   16.41679    1.71353
     361      444        1     0.00000   36.40111   24.18470    1.13263
     362      444        2     0.00000   34.14242   25.88750    5.63378
     363      444        3     0.00000   34.54596   25.55940    2.16071
     364      444        1     0.00000   44.79784   17.62508    4.55497
     365      444        2     0.00000   42.55073   19.34050    2.21678
     366      444        3     0.00000   42.92508   18.97257    5.58181
     367      444        1     0.00000   39.11616   24.18943    5.71759
     368      444        2     0.00000   41.38491   25.87330    1.20740
     369      444        3     0.00000   40.95672   25.58424    4.69506
     370      444        1     0.00000   47.51642   17.61877    2.29094
     371      444        2     0.00000   49.74038   19.36889    4.62809
     372      444        3     0.00000   49.45258   18.88858    1.26882
     373      444        1     0.00000   44.79332   15.25227    5.71594
     374      444        2     0.00000   42.48482   13.61967    1.20740
     375      444        3     0.00000   42.91452   13.90951    4.69239
     376      444        1     0.00000   36.40514   21.81189    2.29176
     377      444        2     0.00000   34.14997   20.10593    4.62953
     378      444        3     0.00000   34.55200   20.43285    1.26348
     379      444        1     0.00000   47.51038   15.24439    1.13325
     380      444        2     0.00000   49.76554   13.54829    5.63933
     381      444        3     0.00000   49.35396   13.85430    2.16112
     382      444        1     0.00000   39.11968   21.81505    4.55723
     383      444        2     0.00000   41.40151   20.14655    2.21761
     384      444        3     0.00000   40.93508   20.38159    5.58304
     385      444        1     0.00000   47.50887   15.24794    5.71635
     386      444        2     0.00000   49.77259   13.55026    1.21028
     387      444        3     0.00000   49.34792   13.85352    4.68869
     388      444        1     0.00000   39.12270   21.81741    2.29361
     389      444        2     0.00000   41.36931   20.10041    4.63241
     390      444        3     0.00000   40.99295   20.46558    1.26738
     391      444        1     0.00000   44.79332   15.24951    1.13386
     392      444        2     0.00000   42.51551   13.58023    5.64302
     393      444        3     0.00000   42.85766   13.98681    2.15475
     394      444        1     0.00000   36.40161   21.81386    4.55476
     395      444        2     0.00000   34.13890   20.12092    2.21411
     396      444        3     0.00000   34.57263   20.40406    5.58017
     397      444        1     0.00000   39.11817   24.18943    1.13160
     398      444        2     0.00000   41.37434   25.88829    5.64610
     399      444        3     0.00000   40.97232   25.56058    2.15763
     400      444        1     0.00000   47.51591   17.62192    4.55476
     401      444        2     0.00000   49.83397   19.24310    2.21781
     402      444        3     0.00000   49.28251   19.11927    5.57647
     403      444        1     0.00000   36.40061   24.18785    5.71410
     404      444        2     0.00000   34.13136   25.87015    1.21007
     405      444        3     0.00000   34.56659   25.59055    4.68335
     406      444        1     0.00000   44.79734   17.62350    2.29155
     407      444        2     0.00000   42.51903   19.29476    4.63179
     408      444        3     0.00000   42.98244   19.05618    1.26615
     409      444        1     0.00000   37.76417   22.06309    0.00288
     410      444        1     0.00000   46.15386   15.50032    3.42501
     411      444        1     0.00000   46.15285   17.36757    0.00041
     412      444        1     0.00000   37.76065   23.93783    3.42460
     413      444        2     0.00000   34.72961   25.46002    0.00185
     414      444        2     0.00000   35.92512   24.55617    0.00103
     415      444        2     0.00000   43.12937   18.90238    3.42398
     416      444        2     0.00000   44.32336   17.99813    3.42316
     417      444        2     0.00000   40.78414   25.46870   -0.00103
     418      444        2     0.00000   39.59064   24.56367   -0.00062
     419      444        2     0.00000   49.19144   18.89173    3.42172
     420      444        2     0.00000   47.99241   17.99222    3.42234
     421      444        2     0.00000   43.13289   13.96078    0.00390
     422      444        2     0.00000   44.32387   14.86818    0.00267
     423      444        2     0.00000   34.73666   20.53223    3.42172
     424      444        2     0.00000   35.92965   21.43844    3.42275
     425      444        2     0.00000   49.17836   13.96551    0.00246
     426      444        2     0.00000   47.98536   14.87094    0.00185
     427      444        2     0.00000   40.79168   20.54011    3.42521
     428      444        2     0.00000   39.59567   21.44278    3.42562
     429      444        4     0.00000   37.76216   23.00086    1.71291
     430      444        4     0.00000   37.75964   23.00125    5.13607
     431      444        4     0.00000   46.15386   16.43730    5.13566
     432      444        4     0.00000   46.15386   16.43414    1.71250
     433      444        1     0.00000    2.85594   37.32089    1.13982
     434      444        2     0.00000    0.60279   39.01502    5.64323
     435      444        3     0.00000    0.97160   38.65813    2.16482
     436      444        1     0.00000   11.25921   30.75575    4.55949
     437      444        2     0.00000    9.03927   32.50982    2.22233
     438      444        3     0.00000    9.34117   32.04764    5.58284
     439      444        1     0.00000    5.57853   37.32326    5.71903
     440      444        2     0.00000    7.83018   39.04499    1.21254
     441      444        3     0.00000    7.49256   38.61396    4.69341
     442      444        1     0.00000   13.97275   30.75417    2.29689
     443      444        2     0.00000   16.27521   32.39822    4.63508
     444      444        3     0.00000   15.75746   32.22470    1.27354
     445      444        1     0.00000   11.25368   28.38334    5.72026
     446      444        2     0.00000    9.01059   26.66595    1.20452
     447      444        3     0.00000    9.35425   27.07528    4.69773
     448      444        1     0.00000    2.87254   34.94572    2.29525
     449      444        2     0.00000    0.64153   33.20348    4.62953
     450      444        3     0.00000    0.98569   33.60966    1.26574
     451      444        1     0.00000   13.97175   28.38137    1.13201
     452      444        2     0.00000   16.22540   26.67738    5.65001
     453      444        3     0.00000   15.81633   27.00075    2.15598
     454      444        1     0.00000    5.58206   34.95006    4.55825
     455      444        2     0.00000    7.89307   33.32060    2.22048
     456      444        3     0.00000    7.35670   33.46415    5.58037
     457      444        1     0.00000   13.96822   28.37388    5.72293
     458      444        2     0.00000   16.23446   26.69434    1.20576
     459      444        3     0.00000   15.80476   26.97788    4.69916
     460      444        1     0.00000    5.59111   34.96425    2.29464
     461      444        2     0.00000    7.81005   33.20821    4.63200
     462      444        3     0.00000    7.50916   33.67118    1.27128
     463      444        1     0.00000   11.25619   28.37979    1.13386
     464      444        2     0.00000    8.95977   26.73811    5.64775
     465      444        3     0.00000    9.44381   26.94751    2.15516
     466      444        1     0.00000    2.86600   34.94611    4.55887
     467      444        2     0.00000    0.58668   33.27920    2.21596
     468      444        3     0.00000    1.08582   33.47243    5.57935
     469      444        1     0.00000    5.57350   37.34021    1.13756
     470      444        2     0.00000    7.87798   38.96415    5.64220
     471      444        3     0.00000    7.40199   38.75593    2.16358
     472      444        1     0.00000   13.97829   30.74668    4.56072
     473      444        2     0.00000   16.20427   32.49129    2.22254
     474      444        3     0.00000   15.88627   32.05513    5.58510
     475      444        1     0.00000    2.86298   37.32010    5.72108
     476      444        2     0.00000    0.57209   38.98741    1.21438
     477      444        3     0.00000    1.02192   38.71097    4.69280
     478      444        1     0.00000   11.25468   30.75260    2.29648
     479      444        2     0.00000    8.95725   32.39861    4.63364
     480      444        3     0.00000    9.49161   32.25034    1.27354
     481      444        1     0.00000    4.22654   35.20915    0.00596
     482      444        1     0.00000   12.61372   28.62902    3.42706
     483      444        1     0.00000   12.61171   30.50573    0.00431
     484      444        1     0.00000    4.21900   37.07482    3.42994
     485      444        2     0.00000    1.18695   38.59898    0.00781
     486      444        2     0.00000    2.38347   37.69749    0.00801
     487      444        2     0.00000    9.59124   32.03660    3.42891
     488      444        2     0.00000   10.78373   31.12920    3.42829
     489      444        2     0.00000    7.24450   38.61672    0.00493
     490      444        2     0.00000    6.05000   37.71208    0.00534
     491      444        2     0.00000   15.64677   32.02674    3.42973
     492      444        2     0.00000   14.45076   31.12329    3.42911
     493      444        2     0.00000    9.59174   27.10092   -0.00185
     494      444        2     0.00000   10.78473   28.00477    0.00123
     495      444        2     0.00000    1.20708   33.65935    3.42254
     496      444        2     0.00000    2.39756   34.56912    3.42562
     497      444        2     0.00000   15.63821   27.10525   -0.00226
     498      444        2     0.00000   14.44623   28.01068   -0.00082
     499      444        2     0.00000    7.25859   33.68183    3.42542
     500      444        2     0.00000    6.06207   34.58450    3.42583
     501      444        4     0.00000    4.22302   36.14257    1.71723
     502      444        4     0.00000    4.22202   36.13547    5.13997
     503      444        4     0.00000   12.61472   29.56521    5.13997
     504      444        4     0.00000   12.61372   29.56718    1.71517
     505      444        1     0.00000   19.63532   37.34416    1.13181
     506      444        2     0.00000   17.38217   39.04814    5.64652
     507      444        3     0.00000   17.77010   38.69757    2.15845
     508      444        1     0.00000   28.01696   30.76995    4.55661
     509      444        2     0.00000   25.75274   32.45895    2.21494
     510      444        3     0.00000   26.18394   32.17423    5.58140
     511      444        1     0.00000   22.34986   37.35086    5.71656
     512      444        2     0.00000   24.55069   39.12780    1.20001
     513      444        3     0.00000   24.16174   38.78669    4.69156
     514      444        1     0.00000   30.73452   30.76916    2.29176
     515      444        2     0.00000   33.00629   32.44870    4.63138
     516      444        3     0.00000   32.55697   32.19079    1.26512
     517      444        1     0.00000   28.01846   28.39320    5.71512
     518      444        2     0.00000   25.75928   26.69513    1.21295
     519      444        3     0.00000   26.12155   27.07055    4.68951
     520      444        1     0.00000   19.63381   34.97096    2.29320
     521      444        2     0.00000   17.41990   33.21216    4.63302
     522      444        3     0.00000   17.73891   33.64555    1.27005
     523      444        1     0.00000   30.73452   28.39281    1.13448
     524      444        2     0.00000   32.99623   26.69828    5.63255
     525      444        3     0.00000   32.56301   26.97946    2.16112
     526      444        1     0.00000   22.35641   34.97648    4.55538
     527      444        2     0.00000   24.60603   33.26894    2.21494
     528      444        3     0.00000   24.20099   33.59270    5.58099
     529      444        1     0.00000   30.73503   28.39596    5.71225
     530      444        2     0.00000   32.98566   26.68172    1.21048
     531      444        3     0.00000   32.58263   27.00903    4.68170
     532      444        1     0.00000   22.34986   34.97096    2.29217
     533      444        2     0.00000   24.61509   33.28156    4.63035
     534      444        3     0.00000   24.18589   33.57102    1.26430
     535      444        1     0.00000   28.01846   28.39320    1.13551
     536      444        2     0.00000   25.72959   26.73141    5.63974
     537      444        3     0.00000   26.17841   26.99878    2.16338
     538      444        1     0.00000   19.63984   34.96662    4.55661
     539      444        2     0.00000   17.34946   33.30404    2.22048
     540      444        3     0.00000   17.86822   33.47755    5.58181
     541      444        1     0.00000   22.35238   37.34534    1.13160
     542      444        2     0.00000   24.59647   39.06747    5.64200
     543      444        3     0.00000   24.07470   38.89987    2.14469
     544      444        1     0.00000   30.73352   30.76995    4.55538
     545      444        2     0.00000   32.98415   32.48143    2.21617
     546      444        3     0.00000   32.59772   32.13006    5.58120
     547      444        1     0.00000   19.63330   37.34061    5.71841
     548      444        2     0.00000   17.36154   39.01620    1.20822
     549      444        3     0.00000   17.80683   38.75396    4.69547
     550      444        1     0.00000   28.01796   30.76798    2.29279
     551      444        2     0.00000   25.76129   32.47196    4.63056
     552      444        3     0.00000   26.16784   32.15057    1.26450
     553      444        1     0.00000   20.99234   35.22019    0.00164
     554      444        1     0.00000   29.37599   28.64756    3.42398
     555      444        1     0.00000   29.37549   30.51520    0.00123
     556      444        1     0.00000   20.99133   37.09532    3.42418
     557      444        2     0.00000   17.96784   38.61988    0.00021
     558      444        2     0.00000   19.16235   37.71721   -0.00021
     559      444        2     0.00000   26.34948   32.04725    3.42295
     560      444        2     0.00000   27.54348   31.14261    3.42418
     561      444        2     0.00000   24.02639   38.61672   -0.00308
     562      444        2     0.00000   22.82938   37.71445   -0.00082
     563      444        2     0.00000   32.40199   32.04843    3.42377
     564      444        2     0.00000   31.20800   31.14379    3.42357
     565      444        2     0.00000   26.35502   27.10762    0.00534
     566      444        2     0.00000   27.54650   28.01502    0.00452
     567      444        2     0.00000   17.97489   33.67986    3.42583
     568      444        2     0.00000   19.16436   34.59238    3.42542
     569      444        2     0.00000   32.39998   27.10959    0.00288
     570      444        2     0.00000   31.20850   28.01778    0.00288
     571      444        2     0.00000   24.01784   33.69248    3.42275
     572      444        2     0.00000   22.82636   34.59948    3.42336
     573      444        4     0.00000   20.99234   36.15795    1.71250
     574      444        4     0.00000   20.99485   36.15874    5.13628
     575      444        4     0.00000   29.37599   29.58217    5.13525
     576      444        4     0.00000   29.37649   29.58098    1.71312
     577      444        1     0.00000   36.40413   37.34297    1.13797
     578      444        2     0.00000   34.21186   39.11755    5.64898
     579      444        3     0.00000   34.49866   38.65774    2.15906
     580      444        1     0.00000   44.78979   30.75733    4.56072
     581      444        2     0.00000   42.54721   32.47985    2.22007
     582      444        3     0.00000   42.92508   32.12296    5.58592
     583      444        1     0.00000   39.12371   37.33154    5.72272
     584      444        2     0.00000   41.34868   39.08482    1.20719
     585      444        3     0.00000   40.97735   38.69875    4.69506
     586      444        1     0.00000   47.51088   30.75062    2.29484
     587      444        2     0.00000   49.80731   32.39901    4.63035
     588      444        3     0.00000   49.30515   32.20972    1.26779
     589      444        1     0.00000   44.78929   28.38413    5.72272
     590      444        2     0.00000   42.53312   26.68014    1.20863
     591      444        3     0.00000   42.94722   26.99168    4.69649
     592      444        1     0.00000   36.40413   34.97017    2.29689
     593      444        2     0.00000   34.15299   33.25790    4.63220
     594      444        3     0.00000   34.54344   33.60532    1.26656
     595      444        1     0.00000   47.49981   28.37664    1.13633
     596      444        2     0.00000   49.69409   26.58668    5.65555
     597      444        3     0.00000   49.31723   26.95303    2.16153
     598      444        1     0.00000   39.12069   34.96149    4.55949
     599      444        2     0.00000   41.40051   33.29024    2.21904
     600      444        3     0.00000   40.94163   33.54026    5.58428
     601      444        1     0.00000   47.50786   28.38216    5.72252
     602      444        2     0.00000   49.74642   26.66358    1.21110
     603      444        3     0.00000   49.20502   26.79411    4.71252
     604      444        1     0.00000   39.12371   34.96859    2.29607
     605      444        2     0.00000   41.37233   33.25278    4.63384
     606      444        3     0.00000   40.99245   33.60848    1.26861
     607      444        1     0.00000   44.78426   28.38728    1.13736
     608      444        2     0.00000   42.52457   26.69316    5.64713
     609      444        3     0.00000   42.96030   26.97078    2.15968
     610      444        1     0.00000   36.40413   34.96583    4.56010
     611      444        2     0.00000   34.13186   33.29024    2.21678
     612      444        3     0.00000   34.58118   33.54696    5.58325
     613      444        1     0.00000   39.12270   37.34140    1.13592
     614      444        2     0.00000   41.39296   39.00871    5.64549
     615      444        3     0.00000   40.89332   38.83125    2.15578
     616      444        1     0.00000   47.50887   30.75496    4.55846
     617      444        2     0.00000   49.75045   32.47709    2.21699
     618      444        3     0.00000   49.41182   32.06420    5.58058
     619      444        1     0.00000   36.40866   37.33864    5.72252
     620      444        2     0.00000   34.10871   38.99727    1.20843
     621      444        3     0.00000   34.67527   38.87463    4.70183
     622      444        1     0.00000   44.79332   30.76206    2.29710
     623      444        2     0.00000   42.51853   32.44239    4.63508
     624      444        3     0.00000   42.97741   32.19158    1.26943
     625      444        1     0.00000   37.76216   35.21782    0.00637
     626      444        1     0.00000   46.14631   28.63296    3.42932
     627      444        1     0.00000   46.14984   30.50494    0.00493
     628      444        1     0.00000   37.76568   37.08941    3.42994
     629      444        2     0.00000   34.73666   38.62422    0.00390
     630      444        2     0.00000   35.93166   37.71839    0.00555
     631      444        2     0.00000   43.12584   32.04251    3.42809
     632      444        2     0.00000   44.31833   31.13472    3.42891
     633      444        2     0.00000   40.79873   38.60844    0.00123
     634      444        2     0.00000   39.60020   37.70932    0.00308
     635      444        2     0.00000   49.18288   32.02516    3.42460
     636      444        2     0.00000   47.98486   31.12526    3.42603
     637      444        2     0.00000   43.11930   27.10841    0.00185
     638      444        2     0.00000   44.31280   28.01226    0.00493
     639      444        2     0.00000   34.73464   33.69169    3.42542
     640      444        2     0.00000   35.92915   34.59514    3.42747
     641      444        2     0.00000   49.16326   27.09421    0.00370
     642      444        2     0.00000   47.97329   28.00200    0.00452
     643      444        2     0.00000   40.79319   33.68893    3.42624
     644      444        2     0.00000   39.59718   34.59238    3.42686
     645      444        4     0.00000   37.76367   36.15519    1.71702
     646      444        4     0.00000   37.76417   36.14928    5.14100
     647      444        4     0.00000   46.14883   29.56955    5.14141
     648      444        4     0.00000   46.14732   29.56915    1.71682
     649      444        1     0.00000    2.85594   11.04338    7.97895
     650      444        2     0.00000    0.65813   12.81795   12.48913
     651      444        3     0.00000    1.00481   12.42242    9.00620
     652      444        1     0.00000   11.23556    4.47075   11.40395
     653      444        2     0.00000    8.98141    6.17000    9.06207
     654      444        3     0.00000    9.39048    5.85531   12.42895
     655      444        1     0.00000    5.57401   11.04653   12.56308
     656      444        2     0.00000    7.85584   12.70872    8.05721
     657      444        3     0.00000    7.42815   12.42912   11.53603
     658      444        1     0.00000   13.94910    4.47982    9.14095
     659      444        2     0.00000   16.21383    6.16921   11.47934
     660      444        3     0.00000   15.77256    5.89672    8.11328
     661      444        1     0.00000   11.24361    2.09952   12.56637
     662      444        2     0.00000    8.94568    0.44877    8.05413
     663      444        3     0.00000    9.36431    0.75794   11.54137
     664      444        1     0.00000    2.85845    8.67018    9.13746
     665      444        2     0.00000    0.66065    6.88890   11.47174
     666      444        3     0.00000    0.92380    7.40510    8.11554
     667      444        1     0.00000   13.96319    2.10425    7.98552
     668      444        2     0.00000   16.25307    0.45193   12.48544
     669      444        3     0.00000   15.79570    0.69366    9.01401
     670      444        1     0.00000    5.57853    8.67491   11.40210
     671      444        2     0.00000    7.83823    6.98394    9.06146
     672      444        3     0.00000    7.40903    7.27379   12.42833
     673      444        1     0.00000   13.96219    2.10977   12.56411
     674      444        2     0.00000   16.22188    0.40105    8.06296
     675      444        3     0.00000   15.85256    0.78081   11.53541
     676      444        1     0.00000    5.57501    8.67412    9.13869
     677      444        2     0.00000    7.82917    6.97250   11.47728
     678      444        3     0.00000    7.42463    7.29469    8.11082
     679      444        1     0.00000   11.24563    2.09045    7.98079
     680      444        2     0.00000    8.96128    0.43339   12.49221
     681      444        3     0.00000    9.33362    0.79501    9.00333
     682      444        1     0.00000    2.86298    8.66426   11.40108
     683      444        2     0.00000    0.54995    7.03994    9.06331
     684      444        3     0.00000    1.12406    7.13103   12.41929
     685      444        1     0.00000    5.57149   11.04693    7.97977
     686      444        2     0.00000    7.84728   12.73041   12.48728
     687      444        3     0.00000    7.45834   12.37431    9.00682
     688      444        1     0.00000   13.95011    4.48179   11.40436
     689      444        2     0.00000   16.20226    6.18577    9.06392
     690      444        3     0.00000   15.79168    5.86872   12.42977
     691      444        1     0.00000    2.85594   11.03904   12.56123
     692      444        2     0.00000    0.58870   12.72883    8.05515
     693      444        3     0.00000    1.11702   12.56833   11.54117
     694      444        1     0.00000   11.23405    4.46562    9.13972
     695      444        2     0.00000    8.97436    6.16132   11.47790
     696      444        3     0.00000    9.40356    5.87029    8.11144
     697      444        1     0.00000    4.21849    8.92217    6.84796
     698      444        1     0.00000   12.60013    2.35111   10.27461
     699      444        1     0.00000   12.59560    4.21797    6.84981
     700      444        1     0.00000    4.21397   10.79375   10.27112
     701      444        2     0.00000    1.18544   12.31713    6.84714
     702      444        2     0.00000    2.37995   11.41407    6.84693
     703      444        2     0.00000    9.56809    5.74607   10.27029
     704      444        2     0.00000   10.76058    4.84143   10.27132
     705      444        2     0.00000    7.23494   12.33093    6.85001
     706      444        2     0.00000    6.04295   11.42432    6.84837
     707      444        2     0.00000   15.61456    5.76185   10.27173
     708      444        2     0.00000   14.42157    4.85681   10.27235
     709      444        2     0.00000    9.57966    0.80921    6.84878
     710      444        2     0.00000   10.77215    1.71542    6.84857
     711      444        2     0.00000    1.19802    7.38223   10.26701
     712      444        2     0.00000    2.38850    8.29121   10.26865
     713      444        2     0.00000   15.63419    0.82735    6.85556
     714      444        2     0.00000   14.43717    1.72844    6.85453
     715      444        2     0.00000    7.24249    7.39643   10.26927
     716      444        2     0.00000    6.05050    8.30146   10.26988
     717      444        4     0.00000    4.21547    9.85875    8.55902
     718      444        4     0.00000    4.21749    9.85638   11.98218
     719      444        4     0.00000   12.59762    3.28967   11.98506
     720      444        4     0.00000   12.59812    3.28454    8.56190
     721      444        1     0.00000   19.62626   11.04259    7.98162
     722      444        2     0.00000   17.36254   12.73238   12.48790
     723      444        3     0.00000   17.88533   12.56715    9.00127
     724      444        1     0.00000   28.01997    4.47824   11.40436
     725      444        2     0.00000   25.73362    6.13885    9.06454
     726      444        3     0.00000   26.24483    5.95863   12.42669
     727      444        1     0.00000   22.33477   11.04969   12.56678
     728      444        2     0.00000   24.60201   12.74105    8.05741
     729      444        3     0.00000   24.12048   12.51943   11.54055
     730      444        1     0.00000   30.73905    4.47982    9.14157
     731      444        2     0.00000   32.99522    6.18025   11.48057
     732      444        3     0.00000   32.57911    5.87108    8.11431
     733      444        1     0.00000   28.02501    2.10465   12.56904
     734      444        2     0.00000   25.77689    0.39435    8.05700
     735      444        3     0.00000   26.20608    0.68104   11.54466
     736      444        1     0.00000   19.62576    8.66821    9.14136
     737      444        2     0.00000   17.36757    6.96816   11.47995
     738      444        3     0.00000   17.77211    7.29271    8.11390
     739      444        1     0.00000   30.74408    2.10583    7.98264
     740      444        2     0.00000   32.98314    0.39120   12.49345
     741      444        3     0.00000   32.48803    0.58167    9.00250
     742      444        1     0.00000   22.35238    8.67846   11.40703
     743      444        2     0.00000   24.58490    6.94608    9.06680
     744      444        3     0.00000   24.26288    7.37868   12.42936
     745      444        1     0.00000   30.74207    2.11174   12.56616
     746      444        2     0.00000   32.95497    0.34348    8.05577
     747      444        3     0.00000   32.55948    0.68775   11.54240
     748      444        1     0.00000   22.34433    8.67057    9.14383
     749      444        2     0.00000   24.65232    7.03599   11.47954
     750      444        3     0.00000   24.13709    7.21108    8.11780
     751      444        1     0.00000   28.02752    2.10267    7.98244
     752      444        2     0.00000   25.77286    0.39672   12.49488
     753      444        3     0.00000   26.20960    0.67907    9.00764
     754      444        1     0.00000   19.63381    8.65795   11.40457
     755      444        2     0.00000   17.35701    6.98354    9.06433
     756      444        3     0.00000   17.79023    7.26472   12.43100
     757      444        1     0.00000   22.34131   11.04456    7.98429
     758      444        2     0.00000   24.57383   12.77655   12.48934
     759      444        3     0.00000   24.18137   12.44056    9.00846
     760      444        1     0.00000   30.73503    4.48455   11.40457
     761      444        2     0.00000   32.99925    6.17315    9.06515
     762      444        3     0.00000   32.57106    5.88370   12.43121
     763      444        1     0.00000   19.61670   11.02997   12.56431
     764      444        2     0.00000   17.42292   12.81283    8.05392
     765      444        3     0.00000   17.78721   12.43662   11.53747
     766      444        1     0.00000   28.02299    4.47784    9.14054
     767      444        2     0.00000   25.79852    6.22560   11.47769
     768      444        3     0.00000   26.12658    5.80049    8.11431
     769      444        1     0.00000   20.98630    8.91862    6.85289
     770      444        1     0.00000   29.38253    2.35664   10.27440
     771      444        1     0.00000   29.38555    4.22664    6.85063
     772      444        1     0.00000   20.98077   10.79178   10.27440
     773      444        2     0.00000   17.96080   12.32147    6.84837
     774      444        2     0.00000   19.15228   11.41407    6.84899
     775      444        2     0.00000   26.35753    5.76224   10.27050
     776      444        2     0.00000   27.54851    4.85327   10.27173
     777      444        2     0.00000   24.00576   12.32659    6.85063
     778      444        2     0.00000   22.81327   11.42038    6.85227
     779      444        2     0.00000   32.40199    5.76343   10.27296
     780      444        2     0.00000   31.20900    4.85800   10.27317
     781      444        2     0.00000   26.35904    0.82656    6.84940
     782      444        2     0.00000   27.55556    1.72765    6.85042
     783      444        2     0.00000   17.95979    7.38657   10.27235
     784      444        2     0.00000   19.15580    8.28845   10.27296
     785      444        2     0.00000   32.41961    0.83799    6.85063
     786      444        2     0.00000   31.22259    1.73711    6.85083
     787      444        2     0.00000   24.02337    7.40510   10.27420
     788      444        2     0.00000   22.82434    8.30343   10.27522
     789      444        4     0.00000   20.98429    9.85599    8.56313
     790      444        4     0.00000   20.98429    9.85441   11.98567
     791      444        4     0.00000   29.38102    3.29479   11.98567
     792      444        4     0.00000   29.38354    3.29125    8.56211
     793      444        1     0.00000   36.41319   11.04377    7.98182
     794      444        2     0.00000   34.16054   12.74973   12.48708
     795      444        3     0.00000   34.64106   12.53244    9.00456
     796      444        1     0.00000   44.79784    4.46720   11.40436
     797      444        2     0.00000   42.52960    6.14949    9.06269
     798      444        3     0.00000   43.00710    5.92550   12.42689
     799      444        1     0.00000   39.12321   11.05205   12.56472
     800      444        2     0.00000   41.41862   12.70438    8.05906
     801      444        3     0.00000   40.94414   12.47487   11.53706
     802      444        1     0.00000   47.51239    4.46010    9.13992
     803      444        2     0.00000   49.82894    6.08088   11.47338
     804      444        3     0.00000   49.25282    5.99097    8.11780
     805      444        1     0.00000   44.79382    2.09518   12.56822
     806      444        2     0.00000   42.53061    0.39750    8.06070
     807      444        3     0.00000   42.89137    0.78988   11.54692
     808      444        1     0.00000   36.41218    8.66939    9.13992
     809      444        2     0.00000   34.14997    6.97763   11.48036
     810      444        3     0.00000   34.57615    7.26905    8.11411
     811      444        1     0.00000   47.50937    2.08335    7.98223
     812      444        2     0.00000   49.76605    0.38528   12.49139
     813      444        3     0.00000   49.35949    0.70352    9.00867
     814      444        1     0.00000   39.14182    8.68004   11.40457
     815      444        2     0.00000   41.38592    6.96343    9.06310
     816      444        3     0.00000   41.02213    7.33964   12.42874
     817      444        1     0.00000   47.51038    2.08966   12.56719
     818      444        2     0.00000   49.77460    0.39514    8.05803
     819      444        3     0.00000   49.33937    0.67631   11.54055
     820      444        1     0.00000   39.12924    8.66742    9.14116
     821      444        2     0.00000   41.42315    7.01391   11.47811
     822      444        3     0.00000   40.95421    7.25012    8.11287
     823      444        1     0.00000   44.79432    2.08651    7.98347
     824      444        2     0.00000   42.50042    0.44798   12.49632
     825      444        3     0.00000   42.94622    0.70628    9.01113
     826      444        1     0.00000   36.42375    8.65717   11.40313
     827      444        2     0.00000   34.15400    6.97132    9.06495
     828      444        3     0.00000   34.56910    7.28167   12.43100
     829      444        1     0.00000   39.13126   11.04141    7.98305
     830      444        2     0.00000   41.37938   12.75643   12.48708
     831      444        3     0.00000   41.02113   12.37273    9.00969
     832      444        1     0.00000   47.51390    4.46128   11.40334
     833      444        2     0.00000   49.71825    6.23112    9.06515
     834      444        3     0.00000   49.45509    5.71610   12.42135
     835      444        1     0.00000   36.40514   11.03076   12.56288
     836      444        2     0.00000   34.19173   12.79390    8.05536
     837      444        3     0.00000   34.59326   12.46501   11.53685
     838      444        1     0.00000   44.79633    4.46168    9.14116
     839      444        2     0.00000   42.56935    6.20391   11.47708
     840      444        3     0.00000   42.93364    5.82534    8.11226
     841      444        1     0.00000   37.77071    8.91980    6.84981
     842      444        1     0.00000   46.15235    2.33850   10.27522
     843      444        1     0.00000   46.15285    4.20771    6.85186
     844      444        1     0.00000   37.76870   10.79139   10.27296
     845      444        2     0.00000   34.75024   12.32856    6.84878
     846      444        2     0.00000   35.94273   11.42116    6.84981
     847      444        2     0.00000   43.13792    5.75357   10.27009
     848      444        2     0.00000   44.32538    4.84104   10.27194
     849      444        2     0.00000   40.80175   12.31831    6.85268
     850      444        2     0.00000   39.60775   11.41328    6.85186
     851      444        2     0.00000   49.18087    5.73898   10.27029
     852      444        2     0.00000   47.98687    4.83473   10.27112
     853      444        2     0.00000   43.12937    0.80526    6.85227
     854      444        2     0.00000   44.32135    1.71108    6.85186
     855      444        2     0.00000   34.74873    7.38618   10.27255
     856      444        2     0.00000   35.94474    8.28845   10.27194
     857      444        2     0.00000   49.17634    0.80408    6.85001
     858      444        2     0.00000   47.98234    1.70872    6.85001
     859      444        2     0.00000   40.81030    7.40392   10.27112
     860      444        2     0.00000   39.61177    8.30264   10.27235
     861      444        4     0.00000   37.77071    9.85560    8.56149
     862      444        4     0.00000   37.77323    9.85481   11.98403
     863      444        4     0.00000   46.15386    3.27784   11.98567
     864      444        4     0.00000   46.15285    3.27271    8.56252
     865      444        1     0.00000    2.86751   24.19613    7.98203
     866      444        2     0.00000    0.56606   25.83702   12.48996
     867      444        3     0.00000    1.18846   25.80548    8.99326
     868      444        1     0.00000   11.25015   17.62429   11.40642
     869      444        2     0.00000    8.95373   19.27031    9.07091
     870      444        3     0.00000    9.48255   19.11612   12.43244
     871      444        1     0.00000    5.56948   24.20008   12.56945
     872      444        2     0.00000    7.87445   25.84570    8.06234
     873      444        3     0.00000    7.33809   25.69348   11.54733
     874      444        1     0.00000   13.96269   17.61522    9.13910
     875      444        2     0.00000   16.21936   19.31842   11.47708
     876      444        3     0.00000   15.82539   18.98361    8.11061
     877      444        1     0.00000   11.24412   15.24873   12.56493
     878      444        2     0.00000    9.00556   13.51359    8.05721
     879      444        3     0.00000    9.41312   13.84484   11.53809
     880      444        1     0.00000    2.86650   21.81860    9.13766
     881      444        2     0.00000    0.64857   20.06295   11.47256
     882      444        3     0.00000    0.98167   20.48569    8.10979
     883      444        1     0.00000   13.95766   15.24202    7.98244
     884      444        2     0.00000   16.21534   13.54080   12.48708
     885      444        3     0.00000   15.90036   13.98405    9.00497
     886      444        1     0.00000    5.58659   21.82767   11.40868
     887      444        2     0.00000    7.80703   20.07912    9.07214
     888      444        3     0.00000    7.49407   20.52828   12.43388
     889      444        1     0.00000   13.95866   15.24084   12.56349
     890      444        2     0.00000   16.27572   13.62203    8.05659
     891      444        3     0.00000   15.80073   13.84918   11.53624
     892      444        1     0.00000    5.58155   21.81978    9.14485
     893      444        2     0.00000    7.88351   20.18362   11.48447
     894      444        3     0.00000    7.35519   20.33742    8.12314
     895      444        1     0.00000   11.23908   15.24636    7.98285
     896      444        2     0.00000    8.99399   13.53961   12.48790
     897      444        3     0.00000    9.44934   13.78174    9.00723
     898      444        1     0.00000    2.87153   21.80677   11.40149
     899      444        2     0.00000    0.58618   20.14971    9.05961
     900      444        3     0.00000    1.09689   20.32519   12.42196
     901      444        1     0.00000    5.58206   24.19456    7.98552
     902      444        2     0.00000    7.79294   25.94902   12.49571
     903      444        3     0.00000    7.47998   25.50814    9.01216
     904      444        1     0.00000   13.96621   17.61561   11.40293
     905      444        2     0.00000   16.23798   19.29515    9.06146
     906      444        3     0.00000   15.79218   19.02660   12.42751
     907      444        1     0.00000    2.85241   24.17996   12.56431
     908      444        2     0.00000    0.69688   26.01093    8.05084
     909      444        3     0.00000    0.96758   25.51050   11.53932
     910      444        1     0.00000   11.24613   17.62114    9.14259
     911      444        2     0.00000    9.03172   19.37639   11.48324
     912      444        3     0.00000    9.33966   18.92210    8.12171
     913      444        1     0.00000    4.23007   22.07295    6.84857
     914      444        1     0.00000   12.60064   15.49598   10.27358
     915      444        1     0.00000   12.60064   17.36520    6.84755
     916      444        1     0.00000    4.21849   23.94138   10.27502
     917      444        2     0.00000    1.20306   25.47659    6.84981
     918      444        2     0.00000    2.39353   24.56879    6.85042
     919      444        2     0.00000    9.58620   18.90711   10.27605
     920      444        2     0.00000   10.77618   17.99892   10.27502
     921      444        2     0.00000    7.24651   25.47738    6.85597
     922      444        2     0.00000    6.05301   24.57353    6.85412
     923      444        2     0.00000   15.63519   18.89015   10.26886
     924      444        2     0.00000   14.43918   17.98788   10.27029
     925      444        2     0.00000    9.57161   13.96827    6.85001
     926      444        2     0.00000   10.76762   14.87015    6.85083
     927      444        2     0.00000    1.21010   20.52355   10.26598
     928      444        2     0.00000    2.39856   21.43450   10.26865
     929      444        2     0.00000   15.63067   13.96867    6.85309
     930      444        2     0.00000   14.43465   14.86976    6.85166
     931      444        2     0.00000    7.25255   20.54840   10.27872
     932      444        2     0.00000    6.05855   21.45106   10.27748
     933      444        4     0.00000    4.22403   23.00717    8.56231
     934      444        4     0.00000    4.22000   23.00401   11.98629
     935      444        4     0.00000   12.60466   16.43256   11.98506
     936      444        4     0.00000   12.60114   16.43099    8.56128
     937      444        1     0.00000   19.63833   24.18194    7.98655
     938      444        2     0.00000   17.34543   25.83545   12.49119
     939      444        3     0.00000   17.79526   25.57163    9.01647
     940      444        1     0.00000   28.02299   17.61404   11.39902
     941      444        2     0.00000   25.75223   19.29397    9.05796
     942      444        3     0.00000   26.18797   19.01122   12.42463
     943      444        1     0.00000   22.35641   24.17720   12.56472
     944      444        2     0.00000   24.65031   25.83190    8.05474
     945      444        3     0.00000   24.18288   25.59095   11.53747
     946      444        1     0.00000   30.72899   17.61483    9.14116
     947      444        2     0.00000   33.03094   19.25177   11.47934
     948      444        3     0.00000   32.50011   19.09876    8.11801
     949      444        1     0.00000   28.01192   15.23966   12.55979
     950      444        2     0.00000   25.75626   13.53961    8.05618
     951      444        3     0.00000   26.11753   13.91740   11.53685
     952      444        1     0.00000   19.63884   21.80756    9.14177
     953      444        2     0.00000   17.36808   20.12486   11.47811
     954      444        3     0.00000   17.81388   20.39578    8.11246
     955      444        1     0.00000   30.74056   15.24084    7.98141
     956      444        2     0.00000   33.01585   13.56288   12.48646
     957      444        3     0.00000   32.64854   13.93751    9.00600
     958      444        1     0.00000   22.35087   21.80125   11.40334
     959      444        2     0.00000   24.60100   20.09647    9.05920
     960      444        3     0.00000   24.19797   20.41747   12.42546
     961      444        1     0.00000   30.72899   15.22901   12.56452
     962      444        2     0.00000   33.04101   13.59798    8.05618
     963      444        3     0.00000   32.61433   13.89058   11.53603
     964      444        1     0.00000   22.35389   21.80756    9.13951
     965      444        2     0.00000   24.61358   20.11067   11.47461
     966      444        3     0.00000   24.16929   20.38395    8.10959
     967      444        1     0.00000   28.02199   15.22980    7.97854
     968      444        2     0.00000   25.72657   13.57708   12.48687
     969      444        3     0.00000   26.18042   13.83656    9.00661
     970      444        1     0.00000   19.63582   21.80834   11.40580
     971      444        2     0.00000   17.38720   20.10199    9.06269
     972      444        3     0.00000   17.77916   20.43837   12.42895
     973      444        1     0.00000   22.35490   24.18233    7.98264
     974      444        2     0.00000   24.60301   25.89144   12.48872
     975      444        3     0.00000   24.26187   25.48842    9.00456
     976      444        1     0.00000   30.73754   17.60339   11.40518
     977      444        2     0.00000   32.95245   19.35785    9.06680
     978      444        3     0.00000   32.64452   18.90435   12.42895
     979      444        1     0.00000   19.63984   24.18154   12.56678
     980      444        2     0.00000   17.37512   25.87370    8.06604
     981      444        3     0.00000   17.74243   25.50261   11.54117
     982      444        1     0.00000   28.01494   17.60378    9.13540
     983      444        2     0.00000   25.76280   19.30619   11.47379
     984      444        3     0.00000   26.16684   18.98519    8.10671
     985      444        1     0.00000   20.99485   22.05994    6.85022
     986      444        1     0.00000   29.37649   15.48573   10.27091
     987      444        1     0.00000   29.37649   17.35732    6.84693
     988      444        1     0.00000   20.99737   23.92837   10.27481
     989      444        2     0.00000   17.96885   25.45805    6.85782
     990      444        2     0.00000   19.16335   24.55578    6.85576
     991      444        2     0.00000   26.35250   18.88660   10.26557
     992      444        2     0.00000   27.54600   17.98354   10.26680
     993      444        2     0.00000   24.02136   25.46279    6.84960
     994      444        2     0.00000   22.82686   24.55775    6.85063
     995      444        2     0.00000   32.39898   18.88818   10.27399
     996      444        2     0.00000   31.20649   17.98354   10.27338
     997      444        2     0.00000   26.34999   13.95447    6.84816
     998      444        2     0.00000   27.54499   14.85832    6.84714
     999      444        2     0.00000   17.97137   20.52907   10.27132
    1000      444        2     0.00000   19.16385   21.43411   10.27338
    1001      444        2     0.00000   32.41206   13.96591    6.85042
    1002      444        2     0.00000   31.21303   14.86463    6.84960
    1003      444        2     0.00000   24.01532   20.52158   10.26783
    1004      444        2     0.00000   22.82434   21.42858   10.27050
    1005      444        4     0.00000   20.99636   22.99455    8.56252
    1006      444        4     0.00000   20.99636   22.99179   11.98608
    1007      444        4     0.00000   29.37498   16.42152   11.98280
    1008      444        4     0.00000   29.37649   16.42192    8.55902
    1009      444        1     0.00000   36.39256   24.18194    7.97771
    1010      444        2     0.00000   34.13840   25.88040   12.49488
    1011      444        3     0.00000   34.54093   25.56098    9.00045
    1012      444        1     0.00000   44.78778   17.61640   11.40251
    1013      444        2     0.00000   42.54318   19.33380    9.06187
    1014      444        3     0.00000   42.92508   18.98283   12.42792
    1015      444        1     0.00000   39.11214   24.18549   12.56308
    1016      444        2     0.00000   41.36780   25.89342    8.06152
    1017      444        3     0.00000   40.85458   25.71438   11.54486
    1018      444        1     0.00000   47.51189   17.62390    9.13787
    1019      444        2     0.00000   49.81083   19.26479   11.47420
    1020      444        3     0.00000   49.30012   19.08772    8.11144
    1021      444        1     0.00000   44.80036   15.24123   12.56123
    1022      444        2     0.00000   42.56281   13.51792    8.05762
    1023      444        3     0.00000   42.94269   13.87205   11.53500
    1024      444        1     0.00000   36.39960   21.80953    9.13890
    1025      444        2     0.00000   34.17815   20.06058   11.47749
    1026      444        3     0.00000   34.48709   20.51251    8.11595
    1027      444        1     0.00000   47.51189   15.25070    7.97956
    1028      444        2     0.00000   49.83146   13.63307   12.48790
    1029      444        3     0.00000   49.33433   13.83459    9.00559
    1030      444        1     0.00000   39.11566   21.81189   11.40108
    1031      444        2     0.00000   41.39346   20.13945    9.06064
    1032      444        3     0.00000   40.93710   20.39342   12.42628
    1033      444        1     0.00000   47.51692   15.25622   12.56164
    1034      444        2     0.00000   49.75800   13.53764    8.05495
    1035      444        3     0.00000   49.45459   13.99548   11.54014
    1036      444        1     0.00000   39.11717   21.81702    9.13787
    1037      444        2     0.00000   41.36629   20.10357   11.47585
    1038      444        3     0.00000   40.98590   20.45848    8.11000
    1039      444        1     0.00000   44.79684   15.24951    7.97956
    1040      444        2     0.00000   42.53362   13.55499   12.48585
    1041      444        3     0.00000   43.00056   13.79752    9.00723
    1042      444        1     0.00000   36.39910   21.80756   11.40293
    1043      444        2     0.00000   34.10016   20.16588    9.06515
    1044      444        3     0.00000   34.62948   20.31967   12.42669
    1045      444        1     0.00000   39.11063   24.19140    7.98100
    1046      444        2     0.00000   41.31799   25.95612   12.49242
    1047      444        3     0.00000   40.94515   25.59410    9.01175
    1048      444        1     0.00000   47.50635   17.62823   11.40169
    1049      444        2     0.00000   49.74743   19.35115    9.06105
    1050      444        3     0.00000   49.41836   18.92565   12.42402
    1051      444        1     0.00000   36.39608   24.18075   12.56719
    1052      444        2     0.00000   34.12783   25.87094    8.04940
    1053      444        3     0.00000   34.55904   25.57951   11.54445
    1054      444        1     0.00000   44.79533   17.62429    9.13890
    1055      444        2     0.00000   42.51551   19.29752   11.47687
    1056      444        3     0.00000   42.97590   19.04868    8.11164
    1057      444        1     0.00000   37.75864   22.06467    6.84775
    1058      444        1     0.00000   46.15537   15.50150   10.27050
    1059      444        1     0.00000   46.15386   17.37427    6.84734
    1060      444        1     0.00000   37.75209   23.93468   10.27276
    1061      444        2     0.00000   34.72810   25.46239    6.84241
    1062      444        2     0.00000   35.92210   24.55815    6.84508
    1063      444        2     0.00000   43.12232   18.89804   10.26988
    1064      444        2     0.00000   44.31682   17.99419   10.27050
    1065      444        2     0.00000   40.77760   25.47422    6.85289
    1066      444        2     0.00000   39.58611   24.56603    6.85022
    1067      444        2     0.00000   49.18137   18.89804   10.26886
    1068      444        2     0.00000   47.98385   17.99853   10.26968
    1069      444        2     0.00000   43.13037   13.96827    6.84919
    1070      444        2     0.00000   44.32185   14.87607    6.84796
    1071      444        2     0.00000   34.73213   20.52986   10.27029
    1072      444        2     0.00000   35.92562   21.43450   10.27071
    1073      444        2     0.00000   49.17131   13.96314    6.84734
    1074      444        2     0.00000   47.98184   14.87291    6.84775
    1075      444        2     0.00000   40.78514   20.53656   10.26783
    1076      444        2     0.00000   39.59064   21.44042   10.26886
    1077      444        4     0.00000   37.75511   23.00007    8.55943
    1078      444        4     0.00000   37.75562   22.99613   11.98382
    1079      444        4     0.00000   46.15235   16.43611   11.98239
    1080      444        4     0.00000   46.15386   16.43769    8.55902
    1081      444        1     0.00000    2.86147   37.32010    7.98470
    1082      444        2     0.00000    0.59775   39.01147   12.49160
    1083      444        3     0.00000    1.03148   38.72714    9.00949
    1084      444        1     0.00000   11.26273   30.76640   11.40436
    1085      444        2     0.00000    9.00606   32.46960    9.06618
    1086      444        3     0.00000    9.41463   32.14662   12.43203
    1087      444        1     0.00000    5.57803   37.33114   12.57006
    1088      444        2     0.00000    7.79495   39.08009    8.05351
    1089      444        3     0.00000    7.38035   38.77604   11.54343
    1090      444        1     0.00000   13.97175   30.75772    9.14403
    1091      444        2     0.00000   16.28175   32.39349   11.47790
    1092      444        3     0.00000   15.74891   32.23930    8.11739
    1093      444        1     0.00000   11.24613   28.39399   12.56596
    1094      444        2     0.00000    9.02719   26.64623    8.06090
    1095      444        3     0.00000    9.32456   27.10841   11.54445
    1096      444        1     0.00000    2.86852   34.94572    9.14732
    1097      444        2     0.00000    0.57310   33.29891   11.48858
    1098      444        3     0.00000    1.10796   33.44127    8.12787
    1099      444        1     0.00000   13.97124   28.38176    7.98675
    1100      444        2     0.00000   16.19722   26.64307   12.49242
    1101      444        3     0.00000   15.80627   26.98261    9.01668
    1102      444        1     0.00000    5.58709   34.95755   11.40929
    1103      444        2     0.00000    7.85735   33.27644    9.06762
    1104      444        3     0.00000    7.42815   33.56076   12.43408
    1105      444        1     0.00000   13.96319   28.37624   12.56842
    1106      444        2     0.00000   16.22641   26.68014    8.06604
    1107      444        3     0.00000   15.75495   26.91478   11.54260
    1108      444        1     0.00000    5.58608   34.95637    9.14526
    1109      444        2     0.00000    7.85030   33.26342   11.48304
    1110      444        3     0.00000    7.44023   33.58403    8.11739
    1111      444        1     0.00000   11.25720   28.38176    7.98408
    1112      444        2     0.00000    8.94115   26.75665   12.49386
    1113      444        3     0.00000    9.47853   26.90532    9.01010
    1114      444        1     0.00000    2.87002   34.94769   11.41073
    1115      444        2     0.00000    0.65461   33.18574    9.07686
    1116      444        3     0.00000    0.95802   33.64870   12.43778
    1117      444        1     0.00000    5.57652   37.32917    7.98264
    1118      444        2     0.00000    7.81458   39.05879   12.49365
    1119      444        3     0.00000    7.34110   38.82494    9.00230
    1120      444        1     0.00000   13.97980   30.74984   11.40765
    1121      444        2     0.00000   16.20125   32.49878    9.06598
    1122      444        3     0.00000   15.89482   32.04843   12.42772
    1123      444        1     0.00000    2.86248   37.32247   12.56883
    1124      444        2     0.00000    0.60782   39.02369    8.05865
    1125      444        3     0.00000    1.00934   38.69678   11.54117
    1126      444        1     0.00000   11.25468   30.75654    9.14095
    1127      444        2     0.00000    8.99801   32.45500   11.48180
    1128      444        3     0.00000    9.42972   32.17462    8.11493
    1129      444        1     0.00000    4.22503   35.19968    6.85248
    1130      444        1     0.00000   12.61070   28.63454   10.27584
    1131      444        1     0.00000   12.61623   30.50297    6.85083
    1132      444        1     0.00000    4.22151   37.07482   10.27666
    1133      444        2     0.00000    1.19702   38.60095    6.85145
    1134      444        2     0.00000    2.38951   37.69513    6.85248
    1135      444        2     0.00000    9.59425   32.04409   10.27338
    1136      444        2     0.00000   10.78574   31.13669   10.27276
    1137      444        2     0.00000    7.24198   38.60805    6.84755
    1138      444        2     0.00000    6.04949   37.70223    6.85001
    1139      444        2     0.00000   15.64727   32.02990   10.27358
    1140      444        2     0.00000   14.45076   31.12683   10.27543
    1141      444        2     0.00000    9.58771   27.10644    6.85350
    1142      444        2     0.00000   10.78171   28.00871    6.85268
    1143      444        2     0.00000    1.20607   33.66093   10.28282
    1144      444        2     0.00000    2.39705   34.57030   10.27995
    1145      444        2     0.00000   15.63318   27.09579    6.85761
    1146      444        2     0.00000   14.44170   28.00240    6.85576
    1147      444        2     0.00000    7.25959   33.68538   10.27584
    1148      444        2     0.00000    6.06207   34.58528   10.27707
    1149      444        4     0.00000    4.22302   36.13745    8.56478
    1150      444        4     0.00000    4.22403   36.13942   11.98958
    1151      444        4     0.00000   12.61271   29.57152   11.98670
    1152      444        4     0.00000   12.61372   29.56955    8.56375
    1153      444        1     0.00000   19.63833   37.34218    7.98203
    1154      444        2     0.00000   17.40380   39.08166   12.48585
    1155      444        3     0.00000   17.78419   38.71649    9.01236
    1156      444        1     0.00000   28.02048   30.76364   11.40416
    1157      444        2     0.00000   25.76833   32.46802    9.06351
    1158      444        3     0.00000   26.17489   32.14781   12.42998
    1159      444        1     0.00000   22.35188   37.34416   12.56616
    1160      444        2     0.00000   24.62515   39.02685    8.05721
    1161      444        3     0.00000   24.22212   38.69993   11.54281
    1162      444        1     0.00000   30.74006   30.75812    9.14136
    1163      444        2     0.00000   32.96402   32.49996   11.48365
    1164      444        3     0.00000   32.65508   32.05198    8.12171
    1165      444        1     0.00000   28.01494   28.39162   12.56575
    1166      444        2     0.00000   25.79903   26.63913    8.05228
    1167      444        3     0.00000   26.16935   27.00351   11.53911
    1168      444        1     0.00000   19.64085   34.96583    9.13807
    1169      444        2     0.00000   17.43047   33.20033   11.47502
    1170      444        3     0.00000   17.73438   33.65620    8.11328
    1171      444        1     0.00000   30.73251   28.38610    7.97607
    1172      444        2     0.00000   32.99321   26.69197   12.49488
    1173      444        3     0.00000   32.55596   26.97551    8.99860
    1174      444        1     0.00000   22.35791   34.97017   11.40395
    1175      444        2     0.00000   24.62264   33.27920    9.06351
    1176      444        3     0.00000   24.19395   33.56944   12.42977
    1177      444        1     0.00000   30.73352   28.38768   12.56760
    1178      444        2     0.00000   32.98163   26.68054    8.04817
    1179      444        3     0.00000   32.57810   26.99996   11.54404
    1180      444        1     0.00000   22.35791   34.97096    9.13992
    1181      444        2     0.00000   24.61559   33.26973   11.47893
    1182      444        3     0.00000   24.20652   33.58600    8.11267
    1183      444        1     0.00000   28.01796   28.39162    7.97874
    1184      444        2     0.00000   25.74972   26.70144   12.48954
    1185      444        3     0.00000   26.25036   26.89901    9.00086
    1186      444        1     0.00000   19.64135   34.96347   11.40149
    1187      444        2     0.00000   17.34845   33.30877    9.06331
    1188      444        3     0.00000   17.88281   33.45981   12.42320
    1189      444        1     0.00000   22.35439   37.34495    7.98059
    1190      444        2     0.00000   24.62666   39.02133   12.49386
    1191      444        3     0.00000   24.21508   38.71137    9.00764
    1192      444        1     0.00000   30.73653   30.75969   11.40539
    1193      444        2     0.00000   33.04101   32.39901    9.07152
    1194      444        3     0.00000   32.51319   32.23851   12.43223
    1195      444        1     0.00000   19.63481   37.34021   12.56164
    1196      444        2     0.00000   17.37009   39.02843    8.06214
    1197      444        3     0.00000   17.84155   38.80365   11.53562
    1198      444        1     0.00000   28.02299   30.76482    9.14075
    1199      444        2     0.00000   25.76079   32.45777   11.47913
    1200      444        3     0.00000   26.18847   32.16595    8.11308
    1201      444        1     0.00000   20.99938   35.22137    6.84714
    1202      444        1     0.00000   29.37649   28.63809   10.27173
    1203      444        1     0.00000   29.37851   30.51520    6.84857
    1204      444        1     0.00000   20.99687   37.09098   10.27194
    1205      444        2     0.00000   17.96885   38.62106    6.85371
    1206      444        2     0.00000   19.16184   37.71563    6.85125
    1207      444        2     0.00000   26.35753   32.04646   10.27153
    1208      444        2     0.00000   27.54902   31.13945   10.27214
    1209      444        2     0.00000   24.01683   38.63053    6.84960
    1210      444        2     0.00000   22.82434   37.72392    6.84899
    1211      444        2     0.00000   32.40854   32.03344   10.27584
    1212      444        2     0.00000   31.21303   31.13157   10.27420
    1213      444        2     0.00000   26.35552   27.10565    6.84549
    1214      444        2     0.00000   27.54600   28.01620    6.84632
    1215      444        2     0.00000   17.98042   33.67512   10.26824
    1216      444        2     0.00000   19.16939   34.58726   10.26927
    1217      444        2     0.00000   32.39696   27.10801    6.84036
    1218      444        2     0.00000   31.20649   28.01581    6.84282
    1219      444        2     0.00000   24.02690   33.69248   10.27112
    1220      444        2     0.00000   22.83239   34.59711   10.27173
    1221      444        4     0.00000   20.99787   36.15598    8.56005
    1222      444        4     0.00000   20.99586   36.15440   11.98341
    1223      444        4     0.00000   29.37649   29.57507   11.98506
    1224      444        4     0.00000   29.37800   29.57586    8.55943
    1225      444        1     0.00000   36.40463   37.33233    7.98614
    1226      444        2     0.00000   34.12934   39.01541   12.49406
    1227      444        3     0.00000   34.47401   38.60332    9.00600
    1228      444        1     0.00000   44.79734   30.76403   11.40950
    1229      444        2     0.00000   42.56180   32.49720    9.07296
    1230      444        3     0.00000   42.91955   32.10877   12.43737
    1231      444        1     0.00000   39.12170   37.33864   12.56986
    1232      444        2     0.00000   41.38139   39.02685    8.06152
    1233      444        3     0.00000   40.89986   38.81942   11.54753
    1234      444        1     0.00000   47.50837   30.75457    9.14876
    1235      444        2     0.00000   49.74089   32.49010   11.48776
    1236      444        3     0.00000   49.43648   32.02911    8.12725
    1237      444        1     0.00000   44.77923   28.38965   12.56719
    1238      444        2     0.00000   42.51853   26.69828    8.06255
    1239      444        3     0.00000   42.84256   27.12655   11.54404
    1240      444        1     0.00000   36.40564   34.95873    9.14773
    1241      444        2     0.00000   34.11073   33.30996   11.48612
    1242      444        3     0.00000   34.63552   33.47361    8.12479
    1243      444        1     0.00000   47.50887   28.38571    7.98675
    1244      444        2     0.00000   49.72932   26.63795   12.49119
    1245      444        3     0.00000   49.51296   27.21291    8.99860
    1246      444        1     0.00000   39.12572   34.96425   11.41094
    1247      444        2     0.00000   41.41258   33.30365    9.07234
    1248      444        3     0.00000   40.93106   33.52014   12.43696
    1249      444        1     0.00000   47.49529   28.36914   12.56924
    1250      444        2     0.00000   49.86215   26.81541    8.05454
    1251      444        3     0.00000   49.28804   26.91084   11.54096
    1252      444        1     0.00000   39.12270   34.96031    9.14732
    1253      444        2     0.00000   41.36780   33.24173   11.48673
    1254      444        3     0.00000   41.01307   33.63332    8.12212
    1255      444        1     0.00000   44.78929   28.38492    7.98572
    1256      444        2     0.00000   42.46620   26.76414   12.49201
    1257      444        3     0.00000   42.93766   27.00075    9.01380
    1258      444        1     0.00000   36.40815   34.95913   11.41155
    1259      444        2     0.00000   34.18570   33.21097    9.07358
    1260      444        3     0.00000   34.49917   33.65422   12.43593
    1261      444        1     0.00000   39.12069   37.33233    7.98634
    1262      444        2     0.00000   41.34818   39.08087   12.49714
    1263      444        3     0.00000   40.95722   38.73148    9.01257
    1264      444        1     0.00000   47.51441   30.74510   11.41237
    1265      444        2     0.00000   49.82240   32.37811    9.07625
    1266      444        3     0.00000   49.28754   32.23417   12.43675
    1267      444        1     0.00000   36.40212   37.33272   12.57089
    1268      444        2     0.00000   34.10117   38.96848    8.05782
    1269      444        3     0.00000   34.54495   38.70782   11.54343
    1270      444        1     0.00000   44.79080   30.75930    9.14609
    1271      444        2     0.00000   42.51752   32.43568   11.48714
    1272      444        3     0.00000   43.00106   32.22194    8.12273
    1273      444        1     0.00000   37.76266   35.21072    6.85268
    1274      444        1     0.00000   46.14430   28.63296   10.27687
    1275      444        1     0.00000   46.15084   30.50731    6.85371
    1276      444        1     0.00000   37.76266   37.08349   10.27748
    1277      444        2     0.00000   34.74622   38.62185    6.85474
    1278      444        2     0.00000   35.93468   37.71130    6.85412
    1279      444        2     0.00000   43.13138   32.04725   10.27995
    1280      444        2     0.00000   44.32185   31.13788   10.27851
    1281      444        2     0.00000   40.79269   38.60371    6.85433
    1282      444        2     0.00000   39.59668   37.70420    6.85453
    1283      444        2     0.00000   49.18691   32.01885   10.28118
    1284      444        2     0.00000   47.98788   31.12092   10.28098
    1285      444        2     0.00000   43.11679   27.11077    6.85515
    1286      444        2     0.00000   44.31431   28.01147    6.85453
    1287      444        2     0.00000   34.74068   33.67867   10.28118
    1288      444        2     0.00000   35.93317   34.58450   10.28015
    1289      444        2     0.00000   49.18339   27.11511    6.85700
    1290      444        2     0.00000   47.98436   28.01265    6.85535
    1291      444        2     0.00000   40.79521   33.68695   10.27913
    1292      444        2     0.00000   39.59920   34.58923   10.27892
    1293      444        4     0.00000   37.76266   36.14612    8.56601
    1294      444        4     0.00000   37.76467   36.14849   11.99019
    1295      444        4     0.00000   46.14682   29.56718   11.98937
    1296      444        4     0.00000   46.14833   29.57073    8.56621
    1297      444        1     0.00000    2.86499   11.04535   14.82423
    1298      444        2     0.00000    0.60077   12.73790   19.33483
    1299      444        3     0.00000    0.93034   12.31358   15.84656
    1300      444        1     0.00000   11.24613    4.47430   18.25520
    1301      444        2     0.00000    8.92908    6.08995   15.92051
    1302      444        3     0.00000    9.51123    6.01147   19.27567
    1303      444        1     0.00000    5.57401   11.04377   19.41063
    1304      444        2     0.00000    7.85433   12.71936   14.90270
    1305      444        3     0.00000    7.49809   12.32028   18.38645
    1306      444        1     0.00000   13.95565    4.47982   15.98973
    1307      444        2     0.00000   16.26867    6.10375   18.32689
    1308      444        3     0.00000   15.71419    5.98544   14.96802
    1309      444        1     0.00000   11.24613    2.09873   19.41268
    1310      444        2     0.00000    8.99952    0.38410   14.90660
    1311      444        3     0.00000    9.42872    0.67710   18.38769
    1312      444        1     0.00000    2.85694    8.67452   15.98439
    1313      444        2     0.00000    0.63197    6.93543   18.32237
    1314      444        3     0.00000    0.94041    7.38933   14.96083
    1315      444        1     0.00000   13.96269    2.10622   14.82732
    1316      444        2     0.00000   16.23798    0.42550   19.33463
    1317      444        3     0.00000   15.76752    0.66132   15.84944
    1318      444        1     0.00000    5.57803    8.67176   18.25253
    1319      444        2     0.00000    7.78238    6.89836   15.92051
    1320      444        3     0.00000    7.52124    7.42048   19.27650
    1321      444        1     0.00000   13.96168    2.09873   19.41289
    1322      444        2     0.00000   16.20578    0.38528   14.89921
    1323      444        3     0.00000   15.82891    0.74335   18.38440
    1324      444        1     0.00000    5.57350    8.66229   15.98911
    1325      444        2     0.00000    7.89508    7.05453   18.32894
    1326      444        3     0.00000    7.31645    7.13576   14.97275
    1327      444        1     0.00000   11.24462    2.09991   14.82978
    1328      444        2     0.00000    9.00002    0.38646   19.33812
    1329      444        3     0.00000    9.43425    0.66763   15.85621
    1330      444        1     0.00000    2.86147    8.66821   18.24842
    1331      444        2     0.00000    0.55348    7.04151   15.91003
    1332      444        3     0.00000    1.08381    7.19413   19.27116
    1333      444        1     0.00000    5.58457   11.03470   14.82670
    1334      444        2     0.00000    7.87999   12.67480   19.33483
    1335      444        3     0.00000    7.43872   12.41138   15.85334
    1336      444        1     0.00000   13.96219    4.47232   18.25376
    1337      444        2     0.00000   16.17358    6.23310   15.91619
    1338      444        3     0.00000   15.88879    5.74805   19.27588
    1339      444        1     0.00000    2.85845   11.04101   19.41001
    1340      444        2     0.00000    0.55649   12.67875   14.89859
    1341      444        3     0.00000    1.01940   12.43425   18.38399
    1342      444        1     0.00000   11.24009    4.47035   15.99158
    1343      444        2     0.00000    9.04380    6.24808   18.32853
    1344      444        3     0.00000    9.30091    5.72084   14.97377
    1345      444        1     0.00000    4.21950    8.91823   13.69386
    1346      444        1     0.00000   12.60416    2.35151   17.12072
    1347      444        1     0.00000   12.59560    4.22625   13.69736
    1348      444        1     0.00000    4.21900   10.79139   17.11784
    1349      444        2     0.00000    1.19752   12.32699   13.69448
    1350      444        2     0.00000    2.38699   11.41722   13.69325
    1351      444        2     0.00000    9.57815    5.75159   17.12400
    1352      444        2     0.00000   10.77014    4.84617   17.12400
    1353      444        2     0.00000    7.25456   12.31082   13.69468
    1354      444        2     0.00000    6.05553   11.41209   13.69468
    1355      444        2     0.00000   15.62714    5.75278   17.12236
    1356      444        2     0.00000   14.43264    4.84972   17.12195
    1357      444        2     0.00000    9.57463    0.82380   13.69859
    1358      444        2     0.00000   10.76964    1.72646   13.69838
    1359      444        2     0.00000    1.18746    7.40156   17.11517
    1360      444        2     0.00000    2.38448    8.29988   17.11599
    1361      444        2     0.00000   15.63419    0.83326   13.69243
    1362      444        2     0.00000   14.43767    1.73553   13.69468
    1363      444        2     0.00000    7.24550    7.39249   17.12503
    1364      444        2     0.00000    6.05000    8.29397   17.12175
    1365      444        4     0.00000    4.21950    9.85441   15.40596
    1366      444        4     0.00000    4.21799    9.85560   18.83035
    1367      444        4     0.00000   12.60365    3.28612   18.83363
    1368      444        4     0.00000   12.60064    3.28888   15.40945
    1369      444        1     0.00000   19.62978   11.04377   14.82793
    1370      444        2     0.00000   17.35701   12.70241   19.33565
    1371      444        3     0.00000   17.75954   12.39994   15.85416
    1372      444        1     0.00000   28.02199    4.49086   18.25171
    1373      444        2     0.00000   25.75978    6.17631   15.90900
    1374      444        3     0.00000   26.21715    5.92708   19.27506
    1375      444        1     0.00000   22.34282   11.04180   19.41617
    1376      444        2     0.00000   24.65182   12.67244   14.90147
    1377      444        3     0.00000   24.05608   12.60698   18.40063
    1378      444        1     0.00000   30.74760    4.47548   15.98460
    1379      444        2     0.00000   32.98113    6.20707   18.32196
    1380      444        3     0.00000   32.65056    5.78275   14.95837
    1381      444        1     0.00000   28.02148    2.11529   19.41207
    1382      444        2     0.00000   25.73965    0.44088   14.90989
    1383      444        3     0.00000   26.32282    0.52882   18.39611
    1384      444        1     0.00000   19.62576    8.67176   15.98768
    1385      444        2     0.00000   17.41688    6.91059   18.32504
    1386      444        3     0.00000   17.70469    7.39288   14.96576
    1387      444        1     0.00000   30.72798    2.10110   14.82916
    1388      444        2     0.00000   33.03145    0.46257   19.33381
    1389      444        3     0.00000   32.56955    0.70628   15.85888
    1390      444        1     0.00000   22.35288    8.67097   18.25253
    1391      444        2     0.00000   24.60553    6.97408   15.90921
    1392      444        3     0.00000   24.21759    7.31874   19.27588
    1393      444        1     0.00000   30.73905    2.11845   19.40878
    1394      444        2     0.00000   32.98767    0.40066   14.90886
    1395      444        3     0.00000   32.64100    0.80408   18.38358
    1396      444        1     0.00000   22.34181    8.66466   15.98891
    1397      444        2     0.00000   24.62968    7.00721   18.32504
    1398      444        3     0.00000   24.17231    7.25919   14.95878
    1399      444        1     0.00000   28.01092    2.12318   14.83266
    1400      444        2     0.00000   25.84230    0.30759   19.34079
    1401      444        3     0.00000   26.14570    0.76188   15.86053
    1402      444        1     0.00000   19.63783    8.65717   18.25129
    1403      444        2     0.00000   17.32330    7.03796   15.91435
    1404      444        3     0.00000   17.87577    7.16140   19.27300
    1405      444        1     0.00000   22.34886   11.03549   14.83019
    1406      444        2     0.00000   24.53609   12.82702   19.34551
    1407      444        3     0.00000   24.26338   12.32817   15.85149
    1408      444        1     0.00000   30.73653    4.49125   18.24862
    1409      444        2     0.00000   33.04604    6.11795   15.90859
    1410      444        3     0.00000   32.53382    5.94404   19.27157
    1411      444        1     0.00000   19.62827   11.02800   19.41268
    1412      444        2     0.00000   17.34795   12.71306   14.90352
    1413      444        3     0.00000   17.75803   12.37313   18.38563
    1414      444        1     0.00000   28.03205    4.49835   15.98788
    1415      444        2     0.00000   25.78544    6.21259   18.32463
    1416      444        3     0.00000   26.17136    5.86201   14.95816
    1417      444        1     0.00000   20.98680    8.91783   13.69674
    1418      444        1     0.00000   29.37549    2.36728   17.12010
    1419      444        1     0.00000   29.38153    4.23335   13.69510
    1420      444        1     0.00000   20.98731   10.78823   17.12175
    1421      444        2     0.00000   17.94973   12.30727   13.69612
    1422      444        2     0.00000   19.14725   11.40815   13.69653
    1423      444        2     0.00000   26.36709    5.78038   17.11682
    1424      444        2     0.00000   27.55656    4.87180   17.11907
    1425      444        2     0.00000   24.01633   12.31200   13.69674
    1426      444        2     0.00000   22.81730   11.41446   13.69797
    1427      444        2     0.00000   32.41810    5.74962   17.11476
    1428      444        2     0.00000   31.21806    4.85405   17.11640
    1429      444        2     0.00000   26.34797    0.83760   13.70249
    1430      444        2     0.00000   27.54298    1.74145   13.70146
    1431      444        2     0.00000   17.96382    7.38933   17.11887
    1432      444        2     0.00000   19.15832    8.29121   17.11928
    1433      444        2     0.00000   32.39596    0.81867   13.70064
    1434      444        2     0.00000   31.20749    1.73041   13.69879
    1435      444        2     0.00000   24.02086    7.40037   17.11784
    1436      444        2     0.00000   22.82183    8.29634   17.11949
    1437      444        4     0.00000   20.98680    9.85402   15.40883
    1438      444        4     0.00000   20.99033    9.84929   18.83322
    1439      444        4     0.00000   29.37901    3.30386   18.83117
    1440      444        4     0.00000   29.37951    3.29992   15.40801
    1441      444        1     0.00000   36.41268   11.03786   14.82649
    1442      444        2     0.00000   34.13890   12.71503   19.33524
    1443      444        3     0.00000   34.52936   12.37786   15.85211
    1444      444        1     0.00000   44.79583    4.46759   18.25273
    1445      444        2     0.00000   42.54822    6.17513   15.91147
    1446      444        3     0.00000   42.94169    5.83914   19.27814
    1447      444        1     0.00000   39.13277   11.04022   19.41042
    1448      444        2     0.00000   41.41107   12.71503   14.90208
    1449      444        3     0.00000   41.06792   12.30333   18.38954
    1450      444        1     0.00000   47.51038    4.47508   15.98788
    1451      444        2     0.00000   49.79925    6.12978   18.32401
    1452      444        3     0.00000   49.26792    5.97874   14.96248
    1453      444        1     0.00000   44.80237    2.09242   19.41371
    1454      444        2     0.00000   42.56885    0.35373   14.90886
    1455      444        3     0.00000   43.05238    0.57457   18.39159
    1456      444        1     0.00000   36.42174    8.66348   15.98644
    1457      444        2     0.00000   34.13136    7.00997   18.32298
    1458      444        3     0.00000   34.64408    7.18742   14.96063
    1459      444        1     0.00000   47.51843    2.09952   14.83060
    1460      444        2     0.00000   49.78265    0.41525   19.33935
    1461      444        3     0.00000   49.37358    0.72639   15.85724
    1462      444        1     0.00000   39.13226    8.66742   18.25027
    1463      444        2     0.00000   41.39950    6.98197   15.91044
    1464      444        3     0.00000   40.95320    7.24973   19.27691
    1465      444        1     0.00000   47.51793    2.10386   19.41330
    1466      444        2     0.00000   49.78617    0.41407   14.90660
    1467      444        3     0.00000   49.37660    0.73507   18.38851
    1468      444        1     0.00000   39.13578    8.67176   15.98665
    1469      444        2     0.00000   41.38189    6.95988   18.32627
    1470      444        3     0.00000   40.98540    7.28995   14.95939
    1471      444        1     0.00000   44.80187    2.09006   14.83204
    1472      444        2     0.00000   42.59098    0.32889   19.33915
    1473      444        3     0.00000   43.01666    0.61755   15.85827
    1474      444        1     0.00000   36.41671    8.66742   18.25047
    1475      444        2     0.00000   34.19677    6.92163   15.90983
    1476      444        3     0.00000   34.52634    7.34713   19.27239
    1477      444        1     0.00000   39.13126   11.04456   14.82793
    1478      444        2     0.00000   41.44579   12.66337   19.33771
    1479      444        3     0.00000   41.00301   12.39955   15.85334
    1480      444        1     0.00000   47.50988    4.47627   18.25171
    1481      444        2     0.00000   49.72076    6.23546   15.91147
    1482      444        3     0.00000   49.41132    5.78433   19.27362
    1483      444        1     0.00000   36.41570   11.04062   19.41083
    1484      444        2     0.00000   34.12532   12.70122   14.90167
    1485      444        3     0.00000   34.54898   12.40034   18.38461
    1486      444        1     0.00000   44.79633    4.46641   15.98870
    1487      444        2     0.00000   42.53010    6.15265   18.32730
    1488      444        3     0.00000   42.97540    5.88134   14.96124
    1489      444        1     0.00000   37.77876    8.91862   13.69551
    1490      444        1     0.00000   46.15990    2.34796   17.12216
    1491      444        1     0.00000   46.15436    4.21639   13.69612
    1492      444        1     0.00000   37.77323   10.79099   17.11907
    1493      444        2     0.00000   34.73565   12.30727   13.69489
    1494      444        2     0.00000   35.93267   11.40579   13.69468
    1495      444        2     0.00000   43.13138    5.74686   17.11969
    1496      444        2     0.00000   44.32286    4.84104   17.12051
    1497      444        2     0.00000   40.79873   12.32344   13.69551
    1498      444        2     0.00000   39.60121   11.42235   13.69592
    1499      444        2     0.00000   49.16930    5.76343   17.11887
    1500      444        2     0.00000   47.98184    4.85208   17.11949
    1501      444        2     0.00000   43.12987    0.81433   13.70167
    1502      444        2     0.00000   44.32437    1.71818   13.70105
    1503      444        2     0.00000   34.75678    7.38263   17.11723
    1504      444        2     0.00000   35.94726    8.28963   17.11784
    1505      444        2     0.00000   49.18238    0.81591   13.69900
    1506      444        2     0.00000   47.98838    1.72055   13.69900
    1507      444        2     0.00000   40.79923    7.38894   17.11825
    1508      444        2     0.00000   39.60725    8.29476   17.11825
    1509      444        4     0.00000   37.77524    9.85481   15.40698
    1510      444        4     0.00000   37.77423    9.85402   18.83076
    1511      444        4     0.00000   46.15688    3.28494   18.83343
    1512      444        4     0.00000   46.15688    3.28257   15.40965
    1513      444        1     0.00000    2.86298   24.18982   14.82793
    1514      444        2     0.00000    0.60027   25.88750   19.33648
    1515      444        3     0.00000    1.05462   25.62644   15.85395
    1516      444        1     0.00000   11.24814   17.61128   18.25499
    1517      444        2     0.00000    8.97185   19.28884   15.91845
    1518      444        3     0.00000    9.44431   19.05933   19.28286
    1519      444        1     0.00000    5.57954   24.19495   19.40755
    1520      444        2     0.00000    7.87747   25.83466   14.90681
    1521      444        3     0.00000    7.40299   25.61619   18.37844
    1522      444        1     0.00000   13.96923   17.61167   15.99178
    1523      444        2     0.00000   16.22188   19.31605   18.33675
    1524      444        3     0.00000   15.84401   18.96114   14.97069
    1525      444        1     0.00000   11.24764   15.23374   19.40857
    1526      444        2     0.00000    9.00204   13.52778   14.90291
    1527      444        3     0.00000    9.49865   13.71352   18.38830
    1528      444        1     0.00000    2.85996   21.81741   15.99055
    1529      444        2     0.00000    0.59222   20.13275   18.33120
    1530      444        3     0.00000    1.03299   20.40801   14.96515
    1531      444        1     0.00000   13.95967   15.24005   14.82690
    1532      444        2     0.00000   16.21031   13.51201   19.33545
    1533      444        3     0.00000   15.77558   13.81724   15.85313
    1534      444        1     0.00000    5.58055   21.82017   18.25397
    1535      444        2     0.00000    7.82062   20.09174   15.91886
    1536      444        3     0.00000    7.45230   20.46637   19.28348
    1537      444        1     0.00000   13.96470   15.23256   19.41083
    1538      444        2     0.00000   16.20125   13.52305   14.90270
    1539      444        3     0.00000   15.77256   13.78845   18.38502
    1540      444        1     0.00000    5.57703   21.81229   15.99117
    1541      444        2     0.00000    7.85835   20.14537   18.33305
    1542      444        3     0.00000    7.38337   20.36857   14.96823
    1543      444        1     0.00000   11.24462   15.24675   14.82834
    1544      444        2     0.00000    9.03524   13.47218   19.33606
    1545      444        3     0.00000    9.42821   13.82118   15.85354
    1546      444        1     0.00000    2.86298   21.81623   18.25479
    1547      444        2     0.00000    0.60782   20.11264   15.91578
    1548      444        3     0.00000    1.00632   20.44153   19.28245
    1549      444        1     0.00000    5.58055   24.18706   14.83225
    1550      444        2     0.00000    7.83269   25.90327   19.32949
    1551      444        3     0.00000    7.49407   25.48447   15.85621
    1552      444        1     0.00000   13.96621   17.60970   18.25540
    1553      444        2     0.00000   16.25106   19.27938   15.92153
    1554      444        3     0.00000   15.79067   19.02778   19.28697
    1555      444        1     0.00000    2.86147   24.19180   19.41207
    1556      444        2     0.00000    0.61335   25.90051   14.90434
    1557      444        3     0.00000    1.02846   25.59805   18.38563
    1558      444        1     0.00000   11.25166   17.62035   15.99178
    1559      444        2     0.00000    9.00908   19.34011   18.33284
    1560      444        3     0.00000    9.37639   18.96547   14.96802
    1561      444        1     0.00000    4.22151   22.06585   13.69756
    1562      444        1     0.00000   12.60516   15.48967   17.11887
    1563      444        1     0.00000   12.60869   17.36796   13.69818
    1564      444        1     0.00000    4.21799   23.93981   17.11969
    1565      444        2     0.00000    1.18494   25.45569   13.69653
    1566      444        2     0.00000    2.38246   24.55657   13.69674
    1567      444        2     0.00000    9.58520   18.89962   17.12524
    1568      444        2     0.00000   10.77769   17.99222   17.12421
    1569      444        2     0.00000    7.24098   25.47580   13.70187
    1570      444        2     0.00000    6.04798   24.56879   13.70105
    1571      444        2     0.00000   15.64123   18.88306   17.12791
    1572      444        2     0.00000   14.44321   17.98275   17.12483
    1573      444        2     0.00000    9.58620   13.95762   13.69571
    1574      444        2     0.00000   10.77266   14.87133   13.69653
    1575      444        2     0.00000    1.19400   20.53775   17.12380
    1576      444        2     0.00000    2.38800   21.44278   17.12318
    1577      444        2     0.00000   15.61809   13.95210   13.69468
    1578      444        2     0.00000   14.43013   14.86345   13.69510
    1579      444        2     0.00000    7.24601   20.53578   17.12565
    1580      444        2     0.00000    6.05201   21.44120   17.12339
    1581      444        4     0.00000    4.22000   23.00204   15.40986
    1582      444        4     0.00000    4.22101   23.00598   18.83199
    1583      444        4     0.00000   12.60617   16.42192   18.83199
    1584      444        4     0.00000   12.60617   16.42980   15.40945
    1585      444        1     0.00000   19.63230   24.17484   14.83081
    1586      444        2     0.00000   17.37713   25.87646   19.33216
    1587      444        3     0.00000   17.84054   25.63354   15.85457
    1588      444        1     0.00000   28.02098   17.60457   18.25191
    1589      444        2     0.00000   25.70242   19.22693   15.91989
    1590      444        3     0.00000   26.26244   19.10941   19.27793
    1591      444        1     0.00000   22.35842   24.18312   19.41330
    1592      444        2     0.00000   24.60100   25.89263   14.90455
    1593      444        3     0.00000   24.19646   25.57991   18.38810
    1594      444        1     0.00000   30.72245   17.62114   15.99076
    1595      444        2     0.00000   33.01132   19.27898   18.33223
    1596      444        3     0.00000   32.49961   19.10547   14.96966
    1597      444        1     0.00000   28.01897   15.23019   19.41083
    1598      444        2     0.00000   25.80355   13.47533   14.89921
    1599      444        3     0.00000   26.04557   14.01559   18.39549
    1600      444        1     0.00000   19.64387   21.80203   15.99589
    1601      444        2     0.00000   17.37059   20.12329   18.33798
    1602      444        3     0.00000   17.83249   20.37094   14.97295
    1603      444        1     0.00000   30.74710   15.24597   14.82793
    1604      444        2     0.00000   32.98667   13.51713   19.33648
    1605      444        3     0.00000   32.54892   13.79949   15.85149
    1606      444        1     0.00000   22.35389   21.80953   18.25664
    1607      444        2     0.00000   24.56125   20.04323   15.92195
    1608      444        3     0.00000   24.28401   20.53656   19.27999
    1609      444        1     0.00000   30.73603   15.22783   19.41207
    1610      444        2     0.00000   32.97912   13.51201   14.90106
    1611      444        3     0.00000   32.55546   13.80383   18.38604
    1612      444        1     0.00000   22.36043   21.81426   15.99281
    1613      444        2     0.00000   24.66138   20.17613   18.33161
    1614      444        3     0.00000   24.10338   20.29483   14.97418
    1615      444        1     0.00000   28.03104   15.21757   14.82362
    1616      444        2     0.00000   25.68531   13.63268   19.34182
    1617      444        3     0.00000   26.25640   13.73284   15.84800
    1618      444        1     0.00000   19.63833   21.81268   18.25931
    1619      444        2     0.00000   17.40028   20.08543   15.92297
    1620      444        3     0.00000   17.77916   20.44113   19.28862
    1621      444        1     0.00000   22.34835   24.18706   14.82834
    1622      444        2     0.00000   24.61509   25.88277   19.33853
    1623      444        3     0.00000   24.17986   25.59174   15.85498
    1624      444        1     0.00000   30.73704   17.60260   18.25397
    1625      444        2     0.00000   32.94943   19.36574   15.91907
    1626      444        3     0.00000   32.61232   18.94812   19.28225
    1627      444        1     0.00000   19.64286   24.18864   19.41371
    1628      444        2     0.00000   17.39927   25.90722   14.90496
    1629      444        3     0.00000   17.79425   25.56808   18.38214
    1630      444        1     0.00000   28.00538   17.59038   15.98809
    1631      444        2     0.00000   25.80355   19.36061   18.32997
    1632      444        3     0.00000   26.07677   18.86373   14.97131
    1633      444        1     0.00000   20.99636   22.05639   13.69920
    1634      444        1     0.00000   29.38153   15.48060   17.11887
    1635      444        1     0.00000   29.37247   17.35653   13.69592
    1636      444        1     0.00000   20.99636   23.93152   17.12195
    1637      444        2     0.00000   17.96633   25.45490   13.69736
    1638      444        2     0.00000   19.16184   24.55184   13.69818
    1639      444        2     0.00000   26.34395   18.87399   17.12318
    1640      444        2     0.00000   27.53795   17.97014   17.12092
    1641      444        2     0.00000   24.01180   25.47067   13.69653
    1642      444        2     0.00000   22.82384   24.55893   13.69653
    1643      444        2     0.00000   32.38841   18.90356   17.12524
    1644      444        2     0.00000   31.20045   17.99064   17.12298
    1645      444        2     0.00000   26.35804   13.94343   13.69201
    1646      444        2     0.00000   27.54952   14.85240   13.69160
    1647      444        2     0.00000   17.97740   20.52316   17.13058
    1648      444        2     0.00000   19.16788   21.43213   17.12852
    1649      444        2     0.00000   32.40501   13.95605   13.69345
    1650      444        2     0.00000   31.21202   14.86305   13.69530
    1651      444        2     0.00000   24.02036   20.52907   17.12770
    1652      444        2     0.00000   22.83038   21.43726   17.12544
    1653      444        4     0.00000   20.99636   22.99415   15.41130
    1654      444        4     0.00000   20.99787   22.99849   18.83528
    1655      444        4     0.00000   29.37851   16.41600   18.83178
    1656      444        4     0.00000   29.37649   16.41876   15.40760
    1657      444        1     0.00000   36.39759   24.17839   14.83060
    1658      444        2     0.00000   34.14242   25.88592   19.33565
    1659      444        3     0.00000   34.55200   25.56847   15.86135
    1660      444        1     0.00000   44.79181   17.61246   18.25068
    1661      444        2     0.00000   42.52658   19.30422   15.91229
    1662      444        3     0.00000   42.92659   18.97297   19.27814
    1663      444        1     0.00000   39.11666   24.18825   19.40899
    1664      444        2     0.00000   41.42365   25.80902   14.90106
    1665      444        3     0.00000   40.94666   25.60160   18.38152
    1666      444        1     0.00000   47.50183   17.62784   15.98891
    1667      444        2     0.00000   49.75598   19.33143   18.32997
    1668      444        3     0.00000   49.36503   18.99150   14.96391
    1669      444        1     0.00000   44.79935   15.23768   19.41104
    1670      444        2     0.00000   42.56381   13.51595   14.90085
    1671      444        3     0.00000   43.06043   13.70839   18.39221
    1672      444        1     0.00000   36.40212   21.80558   15.99055
    1673      444        2     0.00000   34.16507   20.07951   18.33161
    1674      444        3     0.00000   34.50319   20.49476   14.96823
    1675      444        1     0.00000   47.51994   15.25464   14.82567
    1676      444        2     0.00000   49.76957   13.54632   19.33524
    1677      444        3     0.00000   49.26892   13.73994   15.84512
    1678      444        1     0.00000   39.12170   21.81229   18.25191
    1679      444        2     0.00000   41.38088   20.11500   15.91270
    1680      444        3     0.00000   40.94565   20.39460   19.27896
    1681      444        1     0.00000   47.51390   15.24597   19.41083
    1682      444        2     0.00000   49.73032   13.49426   14.89736
    1683      444        3     0.00000   49.35044   13.84957   18.38440
    1684      444        1     0.00000   39.11868   21.80874   15.98809
    1685      444        2     0.00000   41.37032   20.10002   18.32812
    1686      444        3     0.00000   40.96326   20.42102   14.96206
    1687      444        1     0.00000   44.80539   15.23374   14.82465
    1688      444        2     0.00000   42.59602   13.46745   19.33997
    1689      444        3     0.00000   42.99502   13.80383   15.85067
    1690      444        1     0.00000   36.40463   21.80598   18.25417
    1691      444        2     0.00000   34.10569   20.16154   15.91825
    1692      444        3     0.00000   34.61036   20.34649   19.28122
    1693      444        1     0.00000   39.11465   24.18115   14.82690
    1694      444        2     0.00000   41.37132   25.89539   19.33257
    1695      444        3     0.00000   41.04779   25.44425   15.84861
    1696      444        1     0.00000   47.50887   17.61837   18.25212
    1697      444        2     0.00000   49.77561   19.30580   15.91496
    1698      444        3     0.00000   49.32880   19.03843   19.28040
    1699      444        1     0.00000   36.39910   24.18154   19.41042
    1700      444        2     0.00000   34.13488   25.87449   14.91051
    1701      444        3     0.00000   34.56508   25.58858   18.38481
    1702      444        1     0.00000   44.78426   17.60536   15.98706
    1703      444        2     0.00000   42.51601   19.28845   18.32771
    1704      444        3     0.00000   42.94521   19.00254   14.96124
    1705      444        1     0.00000   37.75864   22.05797   13.69592
    1706      444        1     0.00000   46.15738   15.49322   17.11825
    1707      444        1     0.00000   46.14732   17.36993   13.69571
    1708      444        1     0.00000   37.75813   23.93074   17.11949
    1709      444        2     0.00000   34.72861   25.45845   13.70228
    1710      444        2     0.00000   35.92261   24.55302   13.69982
    1711      444        2     0.00000   43.11528   18.88069   17.11990
    1712      444        2     0.00000   44.31229   17.97999   17.11907
    1713      444        2     0.00000   40.77860   25.46436   13.69694
    1714      444        2     0.00000   39.58662   24.55775   13.69510
    1715      444        2     0.00000   49.17181   18.90277   17.12195
    1716      444        2     0.00000   47.97832   17.99813   17.12092
    1717      444        2     0.00000   43.14345   13.94934   13.69263
    1718      444        2     0.00000   44.33292   14.85911   13.69284
    1719      444        2     0.00000   34.73263   20.53144   17.12400
    1720      444        2     0.00000   35.92965   21.43174   17.12298
    1721      444        2     0.00000   49.18993   13.98326   13.69181
    1722      444        2     0.00000   47.99392   14.88395   13.69304
    1723      444        2     0.00000   40.78565   20.52868   17.12031
    1724      444        2     0.00000   39.59366   21.43608   17.12010
    1725      444        4     0.00000   37.75864   22.99376   15.40863
    1726      444        4     0.00000   37.76065   22.99691   18.83158
    1727      444        4     0.00000   46.15386   16.42941   18.83076
    1728      444        4     0.00000   46.15285   16.43099   15.40678
    1729      444        1     0.00000    2.86298   37.32562   14.83225
    1730      444        2     0.00000    0.61134   39.03789   19.34058
    1731      444        3     0.00000    1.04708   38.75199   15.85745
    1732      444        1     0.00000   11.24864   30.75338   18.25520
    1733      444        2     0.00000    8.99600   32.46408   15.91886
    1734      444        3     0.00000    9.36884   32.09457   19.28389
    1735      444        1     0.00000    5.57904   37.33311   19.41474
    1736      444        2     0.00000    7.85030   39.01265   14.90845
    1737      444        3     0.00000    7.43620   38.70782   18.38728
    1738      444        1     0.00000   13.96973   30.76088   15.99035
    1739      444        2     0.00000   16.24553   32.43647   18.32915
    1740      444        3     0.00000   15.77205   32.20775   14.96371
    1741      444        1     0.00000   11.25921   28.37979   19.41145
    1742      444        2     0.00000    9.02870   26.63834   14.90455
    1743      444        3     0.00000    9.39953   27.01692   18.38029
    1744      444        1     0.00000    2.86499   34.95085   15.99466
    1745      444        2     0.00000    0.58316   33.28117   18.33387
    1746      444        3     0.00000    1.08079   33.48071   14.97090
    1747      444        1     0.00000   13.97074   28.38689   14.83142
    1748      444        2     0.00000   16.22842   26.68330   19.33114
    1749      444        3     0.00000   15.85407   27.04847   15.85642
    1750      444        1     0.00000    5.58004   34.95755   18.25766
    1751      444        2     0.00000    7.84879   33.27289   15.91928
    1752      444        3     0.00000    7.38337   33.51068   19.28471
    1753      444        1     0.00000   13.97426   28.38847   19.40919
    1754      444        2     0.00000   16.25156   26.71603   14.90619
    1755      444        3     0.00000   15.80526   26.98024   18.38009
    1756      444        1     0.00000    5.58055   34.95597   15.99446
    1757      444        2     0.00000    7.81760   33.22872   18.33407
    1758      444        3     0.00000    7.44073   33.59231   14.96884
    1759      444        1     0.00000   11.25317   28.38610   14.82978
    1760      444        2     0.00000    8.98543   26.70499   19.33052
    1761      444        3     0.00000    9.48658   26.89033   15.85252
    1762      444        1     0.00000    2.86348   34.95440   18.25848
    1763      444        2     0.00000    0.63901   33.20782   15.92051
    1764      444        3     0.00000    0.98016   33.61321   19.28451
    1765      444        1     0.00000    5.57853   37.33035   14.83368
    1766      444        2     0.00000    7.84829   39.01896   19.33812
    1767      444        3     0.00000    7.44425   38.69323   15.85971
    1768      444        1     0.00000   13.96672   30.76364   18.25335
    1769      444        2     0.00000   16.20678   32.48892   15.91414
    1770      444        3     0.00000   15.84300   32.11192   19.27958
    1771      444        1     0.00000    2.86197   37.32957   19.41720
    1772      444        2     0.00000    0.61889   39.04302   14.90681
    1773      444        3     0.00000    1.04154   38.74962   18.39036
    1774      444        1     0.00000   11.25217   30.75969   15.99137
    1775      444        2     0.00000    8.96530   32.41951   18.33366
    1776      444        3     0.00000    9.42519   32.17581   14.96802
    1777      444        1     0.00000    4.22554   35.20402   13.70187
    1778      444        1     0.00000   12.61221   28.63651   17.12051
    1779      444        1     0.00000   12.61372   30.50928   13.69797
    1780      444        1     0.00000    4.21799   37.07836   17.12400
    1781      444        2     0.00000    1.20004   38.60844   13.69941
    1782      444        2     0.00000    2.39001   37.69947   13.70023
    1783      444        2     0.00000    9.57664   32.02832   17.12585
    1784      444        2     0.00000   10.77467   31.12841   17.12400
    1785      444        2     0.00000    7.24098   38.61672   13.70167
    1786      444        2     0.00000    6.05050   37.70696   13.70187
    1787      444        2     0.00000   15.63419   32.04449   17.12216
    1788      444        2     0.00000   14.44170   31.13709   17.12216
    1789      444        2     0.00000    9.57866   27.11432   13.69838
    1790      444        2     0.00000   10.77467   28.01738   13.69818
    1791      444        2     0.00000    1.20255   33.66408   17.12791
    1792      444        2     0.00000    2.39202   34.57582   17.12688
    1793      444        2     0.00000   15.63167   27.09776   13.70003
    1794      444        2     0.00000   14.44019   28.00555   13.70023
    1795      444        2     0.00000    7.24299   33.67157   17.12667
    1796      444        2     0.00000    6.05251   34.58095   17.12647
    1797      444        4     0.00000    4.22151   36.14099   15.41335
    1798      444        4     0.00000    4.22151   36.14415   18.83630
    1799      444        4     0.00000   12.61221   29.57152   18.83240
    1800      444        4     0.00000   12.61221   29.57349   15.41006
    1801      444        1     0.00000   19.63632   37.34376   14.82547
    1802      444        2     0.00000   17.38669   39.05366   19.33401
    1803      444        3     0.00000   17.75501   38.68416   15.84985
    1804      444        1     0.00000   28.01394   30.76167   18.25314
    1805      444        2     0.00000   25.72305   32.41439   15.91517
    1806      444        3     0.00000   26.22420   32.22470   19.27855
    1807      444        1     0.00000   22.35641   37.33785   19.40899
    1808      444        2     0.00000   24.59295   39.06549   14.90886
    1809      444        3     0.00000   24.33282   38.55284   18.39138
    1810      444        1     0.00000   30.73553   30.76206   15.98829
    1811      444        2     0.00000   32.99019   32.46447   18.32997
    1812      444        3     0.00000   32.58867   32.14229   14.96330
    1813      444        1     0.00000   28.01997   28.38807   19.41330
    1814      444        2     0.00000   25.74720   26.70341   14.90496
    1815      444        3     0.00000   26.19199   26.97867   18.38769
    1816      444        1     0.00000   19.63179   34.96899   15.98685
    1817      444        2     0.00000   17.39273   33.24647   18.32812
    1818      444        3     0.00000   17.75501   33.62583   14.96268
    1819      444        1     0.00000   30.73050   28.38728   14.83101
    1820      444        2     0.00000   32.99673   26.69789   19.33606
    1821      444        3     0.00000   32.56955   26.99010   15.86114
    1822      444        1     0.00000   22.34835   34.96465   18.25191
    1823      444        2     0.00000   24.57635   33.22359   15.91537
    1824      444        3     0.00000   24.24024   33.64239   19.27855
    1825      444        1     0.00000   30.73603   28.39359   19.41186
    1826      444        2     0.00000   32.98868   26.68645   14.91051
    1827      444        3     0.00000   32.58313   27.00864   18.38563
    1828      444        1     0.00000   22.34785   34.96347   15.98850
    1829      444        2     0.00000   24.63522   33.30522   18.32894
    1830      444        3     0.00000   24.13357   33.49372   14.96556
    1831      444        1     0.00000   28.01343   28.39320   14.82957
    1832      444        2     0.00000   25.76682   26.68488   19.33874
    1833      444        3     0.00000   26.16382   27.00864   15.85601
    1834      444        1     0.00000   19.63280   34.96977   18.25109
    1835      444        2     0.00000   17.35248   33.29970   15.91332
    1836      444        3     0.00000   17.82847   33.52685   19.27814
    1837      444        1     0.00000   22.35288   37.33864   14.82978
    1838      444        2     0.00000   24.69258   38.93575   19.33771
    1839      444        3     0.00000   24.16023   38.78038   15.85909
    1840      444        1     0.00000   30.73100   30.76679   18.25150
    1841      444        2     0.00000   33.00377   32.44988   15.91455
    1842      444        3     0.00000   32.56401   32.16871   19.27978
    1843      444        1     0.00000   19.63733   37.34337   19.40960
    1844      444        2     0.00000   17.35499   39.01383   14.89962
    1845      444        3     0.00000   17.81639   38.76539   18.38337
    1846      444        1     0.00000   28.01796   30.76522   15.98953
    1847      444        2     0.00000   25.78242   32.49641   18.32853
    1848      444        3     0.00000   26.11652   32.07564   14.96556
    1849      444        1     0.00000   20.99385   35.21782   13.69489
    1850      444        1     0.00000   29.37448   28.64085   17.12092
    1851      444        1     0.00000   29.37599   30.51244   13.69653
    1852      444        1     0.00000   20.99334   37.08941   17.11825
    1853      444        2     0.00000   17.97237   38.62934   13.69304
    1854      444        2     0.00000   19.16335   37.71879   13.69325
    1855      444        2     0.00000   26.34646   32.03936   17.12113
    1856      444        2     0.00000   27.54147   31.13630   17.12154
    1857      444        2     0.00000   24.01784   38.62461   13.70064
    1858      444        2     0.00000   22.82535   37.71642   13.69879
    1859      444        2     0.00000   32.40250   32.04173   17.12133
    1860      444        2     0.00000   31.20749   31.13827   17.12031
    1861      444        2     0.00000   26.34244   27.11827   13.69756
    1862      444        2     0.00000   27.53895   28.02014   13.69756
    1863      444        2     0.00000   17.96482   33.69090   17.12010
    1864      444        2     0.00000   19.15832   34.59554   17.11949
    1865      444        2     0.00000   32.39847   27.10683   13.70208
    1866      444        2     0.00000   31.20548   28.01305   13.70003
    1867      444        2     0.00000   24.01331   33.68222   17.12216
    1868      444        2     0.00000   22.82132   34.58883   17.12051
    1869      444        4     0.00000   20.99234   36.15361   15.40719
    1870      444        4     0.00000   20.99334   36.15440   18.83035
    1871      444        4     0.00000   29.37498   29.57783   18.83219
    1872      444        4     0.00000   29.37448   29.57704   15.40924
    1873      444        1     0.00000   36.39759   37.32759   14.83450
    1874      444        2     0.00000   34.17815   39.08639   19.33648
    1875      444        3     0.00000   34.54948   38.71689   15.86032
    1876      444        1     0.00000   44.78979   30.75575   18.25622
    1877      444        2     0.00000   42.55878   32.49483   15.91969
    1878      444        3     0.00000   42.89942   32.08313   19.28307
    1879      444        1     0.00000   39.12622   37.33390   19.41330
    1880      444        2     0.00000   41.41812   38.98465   14.90968
    1881      444        3     0.00000   41.06339   38.59779   18.38954
    1882      444        1     0.00000   47.51038   30.74747   15.99199
    1883      444        2     0.00000   49.74995   32.47472   18.33202
    1884      444        3     0.00000   49.40629   32.07249   14.96761
    1885      444        1     0.00000   44.78879   28.38413   19.41474
    1886      444        2     0.00000   42.57035   26.61863   14.90106
    1887      444        3     0.00000   42.93615   27.01219   18.38378
    1888      444        1     0.00000   36.41319   34.95400   15.99528
    1889      444        2     0.00000   34.13991   33.26973   18.33161
    1890      444        3     0.00000   34.58017   33.55011   14.96617
    1891      444        1     0.00000   47.50082   28.37427   14.83245
    1892      444        2     0.00000   49.76756   26.69355   19.33668
    1893      444        3     0.00000   49.37761   27.02914   15.85662
    1894      444        1     0.00000   39.11817   34.95992   18.25705
    1895      444        2     0.00000   41.41460   33.30877   15.91969
    1896      444        3     0.00000   40.91949   33.50674   19.28327
    1897      444        1     0.00000   47.50334   28.38019   19.41392
    1898      444        2     0.00000   49.77762   26.70223   14.90578
    1899      444        3     0.00000   49.35647   27.00903   18.38625
    1900      444        1     0.00000   39.13126   34.97175   15.99363
    1901      444        2     0.00000   41.36026   33.23345   18.33346
    1902      444        3     0.00000   41.01911   33.64436   14.96966
    1903      444        1     0.00000   44.78426   28.38098   14.83122
    1904      444        2     0.00000   42.52004   26.70262   19.33401
    1905      444        3     0.00000   43.03276   26.86076   15.84923
    1906      444        1     0.00000   36.40061   34.96820   18.25848
    1907      444        2     0.00000   34.15349   33.25554   15.91619
    1908      444        3     0.00000   34.55552   33.57614   19.28307
    1909      444        1     0.00000   39.11616   37.34297   14.83307
    1910      444        2     0.00000   41.44177   38.95705   19.33771
    1911      444        3     0.00000   41.02616   38.64315   15.85909
    1912      444        1     0.00000   47.50736   30.75338   18.25520
    1913      444        2     0.00000   49.80479   32.40256   15.91845
    1914      444        3     0.00000   49.30616   32.20420   19.28143
    1915      444        1     0.00000   36.40715   37.34416   19.41556
    1916      444        2     0.00000   34.13186   39.02172   14.90948
    1917      444        3     0.00000   34.62496   38.82021   18.38769
    1918      444        1     0.00000   44.79080   30.75693   15.99281
    1919      444        2     0.00000   42.50494   32.42030   18.33346
    1920      444        3     0.00000   42.99804   32.21997   14.96946
    1921      444        1     0.00000   37.76769   35.21269   13.70187
    1922      444        1     0.00000   46.14430   28.63060   17.12400
    1923      444        1     0.00000   46.14984   30.50179   13.70126
    1924      444        1     0.00000   37.76216   37.08665   17.12359
    1925      444        2     0.00000   34.72559   38.60253   13.70208
    1926      444        2     0.00000   35.92311   37.70183   13.70228
    1927      444        2     0.00000   43.12383   32.03818   17.12647
    1928      444        2     0.00000   44.31632   31.13117   17.12483
    1929      444        2     0.00000   40.78867   38.61791   13.70372
    1930      444        2     0.00000   39.59265   37.71485   13.70167
    1931      444        2     0.00000   49.18238   32.02319   17.12400
    1932      444        2     0.00000   47.98486   31.12250   17.12359
    1933      444        2     0.00000   43.11125   27.10920   13.69633
    1934      444        2     0.00000   44.30676   28.01226   13.69859
    1935      444        2     0.00000   34.74018   33.67946   17.12503
    1936      444        2     0.00000   35.93367   34.58568   17.12626
    1937      444        2     0.00000   49.16024   27.08632   13.69941
    1938      444        2     0.00000   47.96926   27.99491   13.70044
    1939      444        2     0.00000   40.79521   33.68971   17.12647
    1940      444        2     0.00000   39.60020   34.59317   17.12565
    1941      444        4     0.00000   37.76417   36.14928   15.41335
    1942      444        4     0.00000   37.76266   36.15204   18.83569
    1943      444        4     0.00000   46.14732   29.56836   18.83486
    1944      444        4     0.00000   46.14631   29.56560   15.41232
    1945        1        5     0.00000   31.68399    9.28103   16.66409
    1946        1        6     0.00000   31.06963    8.51875   16.81322
    1947        1        6     0.00000   32.00500    9.16272   15.73461
    1948        2        5     0.00000   34.56105    3.26364    1.76447
    1949        2        6     0.00000   34.08305    3.11024    2.61775
    1950        2        6     0.00000   33.84304    3.44662    1.10778
    1951        3        5     0.00000   21.13423   31.74715    4.80392
    1952        3        6     0.00000   20.94806   32.11468    3.90361
    1953        3        6     0.00000   20.84491   32.45895    5.42858
    1954        4        5     0.00000   16.15194   23.39126   10.28303
    1955        4        6     0.00000   15.56827   22.60493   10.42743
    1956        4        6     0.00000   15.53859   24.16774   10.31959
    1957        5        5     0.00000    7.54992   29.26314    2.78659
    1958        5        6     0.00000    7.12072   30.09443    3.11073
    1959        5        6     0.00000    8.38265   29.19136    3.31696
    1960        6        5     0.00000   24.47924    3.03413   17.82363
    1961        6        6     0.00000   25.18115    3.12917   18.51586
    1962        6        6     0.00000   23.82664    3.74909   18.03192
    1963        7        5     0.00000    0.81160   16.72162   19.96606
    1964        7        6     0.00000    0.16051   16.51577   19.24918
    1965        7        6     0.00000    1.51602   17.25242   19.51539
    1966        8        5     0.00000   25.98117   10.21367   10.10268
    1967        8        6     0.00000   25.25209   10.21800   10.77252
    1968        8        6     0.00000   26.31225   11.14670   10.09200
    1969        9        5     0.00000   28.93220    7.30415    6.22598
    1970        9        6     0.00000   29.25020    7.04782    5.32382
    1971        9        6     0.00000   28.48640    8.17803    6.09369
    1972       10        5     0.00000   37.62681   27.09815    8.80079
    1973       10        6     0.00000   38.42885   26.73417    9.25290
    1974       10        6     0.00000   37.79989   26.95777    7.83598
    1975       11        5     0.00000   12.17999   21.02359    4.48903
    1976       11        6     0.00000   12.68819   20.25184    4.84418
    1977       11        6     0.00000   12.09697   20.84140    3.51929
    1978       12        5     0.00000   26.10746   10.37062   17.38241
    1979       12        6     0.00000   25.14039   10.33986   17.59111
    1980       12        6     0.00000   26.42949    9.45257   17.56461
    1981       13        5     0.00000   21.11913   18.90672    8.37107
    1982       13        6     0.00000   21.71488   18.54391    9.07358
    1983       13        6     0.00000   21.73400   19.21431    7.65871
    1984       14        5     0.00000   25.94444   23.41098   16.99008
    1985       14        6     0.00000   25.19423   23.33960   17.63198
    1986       14        6     0.00000   26.44559   22.56392   17.09977
    1987       15        5     0.00000   24.41081   15.98537   10.02812
    1988       15        6     0.00000   23.93431   16.82455    9.80730
    1989       15        6     0.00000   24.92957   16.20069   10.84339
    1990       16        5     0.00000    4.39259   18.64132    2.18022
    1991       16        6     0.00000    4.51385   19.25769    1.41466
    1992       16        6     0.00000    5.28469   18.23317    2.31620
    1993       17        5     0.00000   26.10847   22.49767    6.84426
    1994       17        6     0.00000   25.11926   22.52488    6.81920
    1995       17        6     0.00000   26.38118   23.44608    6.92273
    1996       18        5     0.00000   41.00351   16.42547   14.35179
    1997       18        6     0.00000   40.59495   17.23231   14.75378
    1998       18        6     0.00000   41.76983   16.76895   13.82758
    1999       19        5     0.00000    2.48561   28.70868    9.72555
    2000       19        6     0.00000    1.51300   28.52688    9.74403
    2001       19        6     0.00000    2.55454   29.69574    9.77176
    2002       20        5     0.00000   16.03168   36.03176   12.21286
    2003       20        6     0.00000   15.39971   36.72818   12.52323
    2004       20        6     0.00000   16.70692   35.96709   12.93446
    2005       21        5     0.00000   12.33899   38.68258    2.78947
    2006       21        6     0.00000   11.52035   38.98781    3.25554
    2007       21        6     0.00000   12.15232   38.84032    1.83000
    2008       22        5     0.00000   49.66793   23.31713    9.49590
    2009       22        6     0.00000   50.40556   23.53717   10.11809
    2010       22        6     0.00000   50.11876   23.14598    8.63112
    2011       23        5     0.00000   11.45242    8.62128   16.79145
    2012       23        6     0.00000   11.09820    8.33380   15.91270
    2013       23        6     0.00000   11.93747    7.82903   17.13469
    2014       24        5     0.00000    9.50821    9.62056   12.71837
    2015       24        6     0.00000   10.02848   10.44751   12.88044
    2016       24        6     0.00000    9.59929    9.45730   11.74596
    2017       25        5     0.00000   42.74294   36.40127   10.84421
    2018       25        6     0.00000   42.95326   36.50774   11.80532
    2019       25        6     0.00000   43.29893   35.63544   10.55191
    2020       26        5     0.00000    7.62086   16.09540   10.61846
    2021       26        6     0.00000    8.31723   16.01692    9.91863
    2022       26        6     0.00000    8.11295   16.38603   11.42737
    2023       27        5     0.00000   46.34959    7.83140   17.02952
    2024       27        6     0.00000   46.16443    7.33609   17.86656
    2025       27        6     0.00000   46.30581    8.78533   17.29039
    2026       28        5     0.00000   26.20759    9.22582    0.13126
    2027       28        6     0.00000   25.29738    9.54642   -0.09017
    2028       28        6     0.00000   26.28206    9.34728    1.11127
    2029       29        5     0.00000   47.11691   12.37391   10.54945
    2030       29        6     0.00000   46.92017   12.76787    9.66228
    2031       29        6     0.00000   48.01002   11.95985   10.44428
    2032       30        5     0.00000   20.11634   13.87244    3.86766
    2033       30        6     0.00000   19.40386   14.44662    4.24562
    2034       30        6     0.00000   20.64214   13.57865    4.65397
    2035       31        5     0.00000   21.49801   28.08640    0.28264
    2036       31        6     0.00000   21.34556   27.20108    0.69839
    2037       31        6     0.00000   22.47314   28.11676    0.11051
    2038       32        5     0.00000    9.04179   22.69800   14.22238
    2039       32        6     0.00000    9.62797   23.43149   13.90893
    2040       32        6     0.00000    9.36431   21.89747   13.73679
    2041       33        5     0.00000   21.29675    5.01179    2.67505
    2042       33        6     0.00000   20.68189    5.75514    2.45177
    2043       33        6     0.00000   20.69950    4.24557    2.86670
    2044       34        5     0.00000   24.17231   29.46110   18.28272
    2045       34        6     0.00000   23.60223   30.15318   17.86266
    2046       34        6     0.00000   24.86114   29.25880   17.60035
    2047       35        5     0.00000   30.98359   34.38929    7.19613
    2048       35        6     0.00000   31.92097   34.47526    6.88801
    2049       35        6     0.00000   30.71289   33.47795    6.91841
    2050       36        5     0.00000   16.20376   10.31383   10.26290
    2051       36        6     0.00000   15.66136   11.13329   10.14068
    2052       36        6     0.00000   16.59522   10.13677    9.37060
    2053       37        5     0.00000   29.44895   38.22750   14.02190
    2054       37        6     0.00000   29.28291   38.79260   14.81807
    2055       37        6     0.00000   28.56288   38.14074   13.58869
    2056       38        5     0.00000   21.09800   18.54470   15.92523
    2057       38        6     0.00000   20.88718   18.95562   16.80089
    2058       38        6     0.00000   20.97473   19.27741   15.27059
    2059       39        5     0.00000   30.69125   37.49243    5.77346
    2060       39        6     0.00000   31.47215   37.28816    6.34737
    2061       39        6     0.00000   30.12620   38.08908    6.32581
    2062       40        5     0.00000   32.57408    9.51133   -0.18549
    2063       40        6     0.00000   33.54266    9.41708   -0.00575
    2064       40        6     0.00000   32.31595   10.34498    0.28203
    2065       41        5     0.00000   25.91576    9.48412    6.71485
    2066       41        6     0.00000   26.41037   10.27479    7.04700
    2067       41        6     0.00000   25.09259    9.46125    7.26412
    2068       42        5     0.00000   46.59060   38.16993   19.33545
    2069       42        6     0.00000   47.12546   38.46253   18.55510
    2070       42        6     0.00000   45.79309   38.75593   19.32230
    2071       43        5     0.00000    2.24711    3.87685   16.41431
    2072       43        6     0.00000    1.39174    3.94705   16.90791
    2073       43        6     0.00000    2.63656    4.78583   16.46505
    2074       44        5     0.00000   12.98304    7.29666    6.09390
    2075       44        6     0.00000   12.38478    7.02180    5.35401
    2076       44        6     0.00000   13.79363    7.64132    5.64241
    2077       45        5     0.00000   25.92482   36.55940    2.99652
    2078       45        6     0.00000   25.40354   36.37011    2.17611
    2079       45        6     0.00000   25.25159   36.56058    3.72244
    2080       46        5     0.00000   38.72370   14.18043   16.27546
    2081       46        6     0.00000   38.57778   15.15014   16.40959
    2082       46        6     0.00000   39.06736   13.85746   17.14619
    2083       47        5     0.00000   12.26855   25.33423    8.77799
    2084       47        6     0.00000   13.20845   25.64261    8.81476
    2085       47        6     0.00000   12.06276   25.27902    7.81092
    2086       48        5     0.00000   42.84256   35.79239   20.71601
    2087       48        6     0.00000   42.15474   35.85864   20.00693
    2088       48        6     0.00000   43.26220   36.68914   20.74025
    2089       49        5     0.00000    9.19927   35.72614    7.11951
    2090       49        6     0.00000    9.63099   36.59923    6.94101
    2091       49        6     0.00000    8.38516   35.73126    6.55628
    2092       50        5     0.00000    7.70187    2.89966   17.09730
    2093       50        6     0.00000    7.27117    2.01197   17.01719
    2094       50        6     0.00000    8.13559    3.04517   16.21897
    2095       51        5     0.00000    7.63495   29.15351   17.08559
    2096       51        6     0.00000    8.23170   29.28640   16.30627
    2097       51        6     0.00000    7.23192   28.26109   16.94037
    2098       52        5     0.00000   17.34242    3.79444   13.87545
    2099       52        6     0.00000   17.50846    3.12917   14.58904
    2100       52        6     0.00000   17.50544    3.30071   13.03306
    2101       53        5     0.00000   37.74304   31.86230    2.37926
    2102       53        6     0.00000   36.96666   32.07288    1.80227
    2103       53        6     0.00000   38.52797   32.04291    1.80432
    2104       54        5     0.00000   21.21373    4.00541    5.97887
    2105       54        6     0.00000   21.67110    3.27902    6.47288
    2106       54        6     0.00000   21.94885    4.55869    5.61242
    2107       55        5     0.00000    7.60577    3.60357    0.09264
    2108       55        6     0.00000    8.08125    3.41270    0.94016
    2109       55        6     0.00000    8.31874    3.61619   -0.59446
    2110       56        5     0.00000   40.10990   16.88055    2.88211
    2111       56        6     0.00000   39.58913   17.68305    3.13702
    2112       56        6     0.00000   40.82288   16.82060    3.56674
    2113       57        5     0.00000   13.79665    8.53255   12.12207
    2114       57        6     0.00000   13.99590    8.34326   11.17061
    2115       57        6     0.00000   14.34056    9.33190   12.33528
    2116       58        5     0.00000   17.53462   29.92840   -0.10825
    2117       58        6     0.00000   17.68104   30.14845    0.84567
    2118       58        6     0.00000   18.07804   29.11486   -0.26149
    2119       59        5     0.00000    7.76527   15.97039   17.02027
    2120       59        6     0.00000    8.50743   16.02757   17.67348
    2121       59        6     0.00000    8.17534   16.22947   16.15673
    2122       60        5     0.00000   19.85620   27.27167   10.36067
    2123       60        6     0.00000   20.17672   26.76256    9.57416
    2124       60        6     0.00000   20.17319   26.74955   11.13980
    2125       61        5     0.00000   21.76419   26.94633   17.66115
    2126       61        6     0.00000   21.09247   26.62612   18.31415
    2127       61        6     0.00000   21.39738   27.80286   17.32736
    2128       62        5     0.00000   34.31249   16.59622   14.75604
    2129       62        6     0.00000   33.82745   16.35685   15.58569
    2130       62        6     0.00000   33.59901   16.80010   14.09996
    2131       63        5     0.00000    6.18434    1.76905    3.67088
    2132       63        6     0.00000    7.14085    1.82821    3.42090
    2133       63        6     0.00000    6.17730    1.87908    4.65500
    2134       64        5     0.00000   45.61649   38.68692    2.58508
    2135       64        6     0.00000   45.49070   38.65931    1.60302
    2136       64        6     0.00000   44.74853   38.39155    2.95955
    2137       65        5     0.00000    0.75927    3.65050    6.80030
    2138       65        6     0.00000    1.10393    4.57209    6.91205
    2139       65        6     0.00000   -0.20328    3.71754    7.02153
    2140       66        5     0.00000   22.33628   17.97763   19.19269
    2141       66        6     0.00000   22.03891   18.87872   19.47615
    2142       66        6     0.00000   21.49751   17.48035   19.02117
    2143       67        5     0.00000    3.22677   31.99164   20.73450
    2144       67        6     0.00000    3.43759   32.47236   19.89499
    2145       67        6     0.00000    3.72691   32.48103   21.43494
    2146       68        5     0.00000   34.85993    4.18839    6.72738
    2147       68        6     0.00000   35.40787    5.00509    6.84241
    2148       68        6     0.00000   34.70949    3.86029    7.64906
    2149       69        5     0.00000   49.47975   23.43661   17.04554
    2150       69        6     0.00000   49.24276   22.54657   17.41035
    2151       69        6     0.00000   50.12027   23.24772   16.31428
    2152       70        5     0.00000   21.08140    0.70194   18.07998
    2153       70        6     0.00000   20.20791    0.45035   17.68662
    2154       70        6     0.00000   20.96819    0.55130   19.05219
    2155       71        5     0.00000    9.09562    9.56693    0.27566
    2156       71        6     0.00000    8.49183    9.59572    1.06033
    2157       71        6     0.00000    9.76130   10.27992    0.44656
    2158       72        5     0.00000   34.23299    2.84957   10.42004
    2159       72        6     0.00000   33.52253    2.87521    9.73109
    2160       72        6     0.00000   33.77562    3.11063   11.25873
    2161       73        5     0.00000    0.67725   16.09500   10.03387
    2162       73        6     0.00000    1.00884   16.66010   10.77642
    2163       73        6     0.00000    1.17387   15.24399   10.13041
    2164       74        5     0.00000   29.88619   38.79103   17.97748
    2165       74        6     0.00000   29.27737   38.97558   18.73647
    2166       74        6     0.00000   29.38454   38.15809   17.40521
    2167       75        5     0.00000   29.39813   20.42339    7.84974
    2168       75        6     0.00000   28.47131   20.49752    8.18949
    2169       75        6     0.00000   29.96569   20.68287    8.61695
    2170       76        5     0.00000   -1.03550   10.13322   16.89538
    2171       76        6     0.00000   -0.50618    9.97706   16.07313
    2172       76        6     0.00000   -0.36529   10.14150   17.62479
    2173       77        5     0.00000   42.81992    9.88596    4.86144
    2174       77        6     0.00000   43.52183    9.20295    5.00748
    2175       77        6     0.00000   42.16833    9.73059    5.59085
    2176       78        5     0.00000   29.76191   25.54994    4.36578
    2177       78        6     0.00000   30.26105   25.97347    3.62302
    2178       78        6     0.00000   28.83459   25.88395    4.26616
    2179       79        5     0.00000    3.98603   13.87244    4.16613
    2180       79        6     0.00000    3.74049   13.75256    5.11800
    2181       79        6     0.00000    3.19607   13.55223    3.66164
    2182       80        5     0.00000   41.31849    3.76644   13.64539
    2183       80        6     0.00000   41.83121    3.55033   12.82621
    2184       80        6     0.00000   40.85156    2.92450   13.87565
    2185       81        5     0.00000    4.15409    0.81867   11.93329
    2186       81        6     0.00000    4.26730    0.80526   12.91700
    2187       81        6     0.00000    5.07839    0.83129   11.57835
    2188       82        5     0.00000   32.88151   10.25547   10.26578
    2189       82        6     0.00000   32.49357   11.16010   10.15978
    2190       82        6     0.00000   33.47876   10.14781    9.48316
    2191       83        5     0.00000   11.24361   24.32351   19.27321
    2192       83        6     0.00000   11.73822   23.47092   19.36318
    2193       83        6     0.00000   11.93395   25.02466   19.37879
    2194       84        5     0.00000    7.40953   16.84584   -0.03677
    2195       84        6     0.00000    7.12022   17.79228   -0.07004
    2196       84        6     0.00000    8.39120   16.88015   -0.15981
    2197       85        5     0.00000   42.53815   23.44568   10.36725
    2198       85        6     0.00000   42.10040   23.20434   11.22237
    2199       85        6     0.00000   43.09213   22.65659   10.13986
    2200       86        5     0.00000   24.27546   16.72281    6.55833
    2201       86        6     0.00000   24.98441   16.77407    7.24748
    2202       86        6     0.00000   24.76403   16.55876    5.71286
    2203       87        5     0.00000   12.17396   11.76346   14.62191
    2204       87        6     0.00000   11.97470   12.35814   15.38829
    2205       87        6     0.00000   12.54076   12.36682   13.92741
    2206       88        5     0.00000   41.17610   16.09579   17.77064
    2207       88        6     0.00000   41.67121   16.26733   18.61117
    2208       88        6     0.00000   41.88002   15.87811   17.10901
    2209       89        5     0.00000    4.50379   31.95418    8.28727
    2210       89        6     0.00000    5.27463   32.01294    7.66837
    2211       89        6     0.00000    3.78225   32.45855    7.83454
    2212       90        5     0.00000   29.40467   25.48921   11.89160
    2213       90        6     0.00000   30.09903   25.82125   11.26879
    2214       90        6     0.00000   28.54829   25.73804   11.46085
    2215       91        5     0.00000   45.38000   12.46264    3.08629
    2216       91        6     0.00000   44.48438   12.04029    3.08711
    2217       91        6     0.00000   45.57774   12.62472    2.12949
    2218       92        5     0.00000   24.18791   16.36868    1.84355
    2219       92        6     0.00000   25.04680   16.51065    1.37111
    2220       92        6     0.00000   24.41986   16.42507    2.80467
    2221       93        5     0.00000    9.45890   22.95985    1.34194
    2222       93        6     0.00000    9.01361   23.06553    2.22007
    2223       93        6     0.00000   10.07226   22.19244    1.46457
    2224       94        5     0.00000   48.58060   21.93966   20.38633
    2225       94        6     0.00000   49.52855   21.94597   20.67287
    2226       94        6     0.00000   48.23191   21.06775   20.69999
    2227       95        5     0.00000   49.42893   35.97300   15.02882
    2228       95        6     0.00000   49.90643   35.91424   14.16281
    2229       95        6     0.00000   50.12178   36.24589   15.68244
    2230       96        5     0.00000   26.35502   22.94762    0.13824
    2231       96        6     0.00000   25.97413   22.28551   -0.49114
    2232       96        6     0.00000   26.72232   23.65903   -0.44430
    2233       97        5     0.00000   36.79559    5.80641   -0.04909
    2234       97        6     0.00000   36.95207    6.01778    0.90565
    2235       97        6     0.00000   35.90147    5.38130   -0.06573
    2236       98        5     0.00000   49.43245   22.57614   13.23087
    2237       98        6     0.00000   50.27273   22.76149   12.74097
    2238       98        6     0.00000   48.81608   22.22517   12.54008
    2239       99        5     0.00000   12.52164   25.45608   15.63191
    2240       99        6     0.00000   13.46909   25.35316   15.36282
    2241       99        6     0.00000   12.01043   25.32279   14.79424
    2242      100        5     0.00000   24.32225   29.11131   10.22736
    2243      100        6     0.00000   24.12602   29.85584    9.60477
    2244      100        6     0.00000   25.30945   29.03717   10.21956
    2245      101        5     0.00000   47.51088   11.08360   14.03690
    2246      101        6     0.00000   46.87791   10.37180   14.30640
    2247      101        6     0.00000   46.95338   11.74217   13.55069
    2248      102        5     0.00000    0.83223   29.90238   20.32922
    2249      102        6     0.00000   -0.05183   30.01437   20.76120
    2250      102        6     0.00000    1.23677   29.12354   20.78749
    2251      103        5     0.00000    6.89832    4.10913   13.35884
    2252      103        6     0.00000    6.48875    4.25622   12.46900
    2253      103        6     0.00000    7.55847    3.38589   13.21320
    2254      104        5     0.00000   49.43799   35.79476   20.36147
    2255      104        6     0.00000   50.16002   35.86929   21.03439
    2256      104        6     0.00000   49.05810   34.89130   20.50444
    2257      105        5     0.00000   11.61444   25.44425    3.53716
    2258      105        6     0.00000   10.74398   24.97340    3.57496
    2259      105        6     0.00000   11.79910   25.70018    4.47588
    2260      106        5     0.00000   45.53095   12.34039   16.75570
    2261      106        6     0.00000   44.68161   11.84391   16.64129
    2262      106        6     0.00000   45.73926   12.68703   15.85190
    2263      107        5     0.00000   49.59547    9.85244   11.90721
    2264      107        6     0.00000   50.17914   10.12257   11.15438
    2265      107        6     0.00000   48.83973    9.37843   11.47687
    2266      108        5     0.00000    0.81914   29.02179    3.46650
    2267      108        6     0.00000    0.94091   29.72729    2.78269
    2268      108        6     0.00000   -0.15195   29.03047    3.65876

Bonds

       1        1        1       54
       2        2        1       69
       3        3        2       45
       4        4        2      701
       5        3        3       44
       6        1        4       56
       7        2        4       71
       8        4        5       23
       9        3        5       48
      10        4        5       55
      11        3        6       47
      12        2        7       70
      13        1        7      706
      14        3        8       39
      15        4        8       57
      16        4        8      230
      17        3        9       38
      18        1       10       60
      19        2       10       72
      20        3       11       42
      21        4       11       59
      22        4       11       89
      23        3       12       41
      24        2       13       71
      25        1       13      710
      26        3       14       33
      27        4       14       61
      28        3       15       32
      29        1       16       64
      30        2       16       69
      31        3       17       36
      32        4       17       63
      33        3       18       35
      34        1       19       66
      35        2       19       72
      36        3       20       27
      37        4       20      713
      38        3       21       26
      39        1       22       68
      40        2       22       70
      41        3       23       30
      42        4       23       67
      43        3       24       29
      44        2       25       71
      45        1       25      714
      46        4       26       65
      47        1       28       68
      48        2       28       69
      49        4       29       47
      50        4       29       67
      51        1       31       62
      52        2       31       72
      53        4       32      709
      54        1       34       64
      55        2       34       70
      56        4       35       63
      57        1       37       58
      58        2       37       69
      59        4       38      248
      60        4       38      705
      61        1       40       60
      62        2       40       71
      63        4       41       59
      64        4       41      107
      65        2       43       70
      66        1       43      702
      67        4       44       53
      68        1       46       56
      69        2       46       72
      70        4       47       55
      71        2       49       69
      72        2       50       71
      73        2       50       72
      74        2       51       72
      75        2       52       69
      76        2       52       70
      77        5       53       54
      78        5       55       56
      79        5       57       58
      80        5       59       60
      81        5       61       62
      82        5       63       64
      83        5       65       66
      84        5       67       68
      85        2       70      697
      86        2       71      699
      87        1       73      126
      88        2       73      141
      89        3       74      117
      90        4       74      236
      91        4       74      773
      92        3       75      116
      93        1       76      128
      94        2       76      143
      95        4       77       95
      96        3       77      120
      97        4       77      127
      98        3       78      119
      99        2       79      142
     100        1       79      778
     101        3       80      111
     102        4       80      129
     103        4       80      302
     104        3       81      110
     105        1       82      132
     106        2       82      144
     107        3       83      114
     108        4       83      131
     109        4       83      161
     110        3       84      113
     111        2       85      143
     112        1       85      782
     113        3       86      105
     114        4       86      133
     115        3       87      104
     116        1       88      136
     117        2       88      141
     118        3       89      108
     119        4       89      135
     120        3       90      107
     121        1       91      138
     122        2       91      144
     123        3       92       99
     124        4       92      785
     125        3       93       98
     126        1       94      140
     127        2       94      142
     128        3       95      102
     129        4       95      139
     130        3       96      101
     131        2       97      143
     132        1       97      786
     133        4       98      137
     134        1      100      140
     135        2      100      141
     136        4      101      119
     137        4      101      139
     138        1      103      134
     139        2      103      144
     140        4      104      781
     141        1      106      136
     142        2      106      142
     143        4      107      135
     144        1      109      130
     145        2      109      141
     146        4      110      320
     147        4      110      777
     148        1      112      132
     149        2      112      143
     150        4      113      131
     151        4      113      179
     152        2      115      142
     153        1      115      774
     154        4      116      125
     155        4      116      242
     156        1      118      128
     157        2      118      144
     158        4      119      127
     159        2      121      141
     160        2      122      143
     161        2      122      144
     162        2      123      144
     163        2      124      141
     164        2      124      142
     165        5      125      126
     166        5      127      128
     167        5      129      130
     168        5      131      132
     169        5      133      134
     170        5      135      136
     171        5      137      138
     172        5      139      140
     173        2      142      769
     174        2      143      771
     175        1      145      198
     176        2      145      213
     177        3      146      189
     178        4      146      308
     179        4      146      845
     180        3      147      188
     181        1      148      200
     182        2      148      215
     183        4      149      167
     184        3      149      192
     185        4      149      199
     186        3      150      191
     187        2      151      214
     188        1      151      850
     189        3      152      183
     190        4      152      201
     191        4      152      374
     192        3      153      182
     193        1      154      204
     194        2      154      216
     195        4      155       17
     196        3      155      186
     197        4      155      203
     198        3      156      185
     199        2      157      215
     200        1      157      854
     201        3      158      177
     202        4      158      205
     203        3      159      176
     204        1      160      208
     205        2      160      213
     206        3      161      180
     207        4      161      207
     208        3      162      179
     209        1      163      210
     210        2      163      216
     211        3      164      171
     212        4      164      857
     213        3      165      170
     214        1      166      212
     215        2      166      214
     216        3      167      174
     217        4      167      211
     218        3      168      173
     219        2      169      215
     220        1      169      858
     221        4      170      209
     222        1      172      212
     223        2      172      213
     224        4      173      191
     225        4      173      211
     226        1      175      206
     227        2      175      216
     228        4      176      853
     229        1      178      208
     230        2      178      214
     231        4      179      207
     232        1      181      202
     233        2      181      213
     234        4      182      392
     235        4      182      849
     236        1      184      204
     237        2      184      215
     238        4      185       35
     239        4      185      203
     240        2      187      214
     241        1      187      846
     242        4      188      197
     243        4      188      314
     244        1      190      200
     245        2      190      216
     246        4      191      199
     247        2      193      213
     248        2      194      215
     249        2      194      216
     250        2      195      216
     251        2      196      213
     252        2      196      214
     253        5      197      198
     254        5      199      200
     255        5      201      202
     256        5      203      204
     257        5      205      206
     258        5      207      208
     259        5      209      210
     260        5      211      212
     261        2      214      841
     262        2      215      843
     263        1      217      270
     264        2      217      285
     265        3      218      261
     266        4      218      917
     267        3      219      260
     268        1      220      272
     269        2      220      287
     270        4      221      239
     271        3      221      264
     272        4      221      271
     273        3      222      263
     274        2      223      286
     275        1      223      922
     276        3      224      255
     277        4      224      273
     278        4      224      446
     279        3      225      254
     280        1      226      276
     281        2      226      288
     282        3      227      258
     283        4      227      275
     284        4      227      305
     285        3      228      257
     286        2      229      287
     287        1      229      926
     288        3      230      249
     289        4      230      277
     290        3      231      248
     291        1      232      280
     292        2      232      285
     293        3      233      252
     294        4      233      279
     295        3      234      251
     296        1      235      282
     297        2      235      288
     298        3      236      243
     299        4      236      929
     300        3      237      242
     301        1      238      284
     302        2      238      286
     303        3      239      246
     304        4      239      283
     305        3      240      245
     306        2      241      287
     307        1      241      930
     308        4      242      281
     309        1      244      284
     310        2      244      285
     311        4      245      263
     312        4      245      283
     313        1      247      278
     314        2      247      288
     315        4      248      925
     316        1      250      280
     317        2      250      286
     318        4      251      279
     319        1      253      274
     320        2      253      285
     321        4      254      464
     322        4      254      921
     323        1      256      276
     324        2      256      287
     325        4      257      275
     326        4      257      323
     327        2      259      286
     328        1      259      918
     329        4      260      269
     330        1      262      272
     331        2      262      288
     332        4      263      271
     333        2      265      285
     334        2      266      287
     335        2      266      288
     336        2      267      288
     337        2      268      285
     338        2      268      286
     339        5      269      270
     340        5      271      272
     341        5      273      274
     342        5      275      276
     343        5      277      278
     344        5      279      280
     345        5      281      282
     346        5      283      284
     347        2      286      913
     348        2      287      915
     349        1      289      342
     350        2      289      357
     351        3      290      333
     352        4      290      452
     353        4      290      989
     354        3      291      332
     355        1      292      344
     356        2      292      359
     357        4      293      311
     358        3      293      336
     359        4      293      343
     360        3      294      335
     361        2      295      358
     362        1      295      994
     363        3      296      327
     364        4      296      345
     365        4      296      518
     366        3      297      326
     367        1      298      348
     368        2      298      360
     369        3      299      330
     370        4      299      347
     371        4      299      377
     372        3      300      329
     373        2      301      359
     374        1      301      998
     375        3      302      321
     376        4      302      349
     377        3      303      320
     378        1      304      352
     379        2      304      357
     380        3      305      324
     381        4      305      351
     382        3      306      323
     383        1      307      354
     384        2      307      360
     385        3      308      315
     386        4      308     1001
     387        3      309      314
     388        1      310      356
     389        2      310      358
     390        3      311      318
     391        4      311      355
     392        3      312      317
     393        2      313      359
     394        1      313     1002
     395        4      314      353
     396        1      316      356
     397        2      316      357
     398        4      317      335
     399        4      317      355
     400        1      319      350
     401        2      319      360
     402        4      320      997
     403        1      322      352
     404        2      322      358
     405        4      323      351
     406        1      325      346
     407        2      325      357
     408        4      326      536
     409        4      326      993
     410        1      328      348
     411        2      328      359
     412        4      329      347
     413        4      329      395
     414        2      331      358
     415        1      331      990
     416        4      332      341
     417        4      332      458
     418        1      334      344
     419        2      334      360
     420        4      335      343
     421        2      337      357
     422        2      338      359
     423        2      338      360
     424        2      339      360
     425        2      340      357
     426        2      340      358
     427        5      341      342
     428        5      343      344
     429        5      345      346
     430        5      347      348
     431        5      349      350
     432        5      351      352
     433        5      353      354
     434        5      355      356
     435        2      358      985
     436        2      359      987
     437        1      361      414
     438        2      361      429
     439        3      362      405
     440        4      362      524
     441        4      362     1061
     442        3      363      404
     443        1      364      416
     444        2      364      431
     445        4      365      383
     446        3      365      408
     447        4      365      415
     448        3      366      407
     449        2      367      430
     450        1      367     1066
     451        3      368      399
     452        4      368      417
     453        4      368      590
     454        3      369      398
     455        1      370      420
     456        2      370      432
     457        4      371      233
     458        3      371      402
     459        4      371      419
     460        3      372      401
     461        2      373      431
     462        1      373     1070
     463        3      374      393
     464        4      374      421
     465        3      375      392
     466        1      376      424
     467        2      376      429
     468        3      377      396
     469        4      377      423
     470        3      378      395
     471        1      379      426
     472        2      379      432
     473        4      380        2
     474        3      380      387
     475        4      380     1073
     476        3      381      386
     477        1      382      428
     478        2      382      430
     479        3      383      390
     480        4      383      427
     481        3      384      389
     482        2      385      431
     483        1      385     1074
     484        4      386       44
     485        4      386      425
     486        1      388      428
     487        2      388      429
     488        4      389      407
     489        4      389      427
     490        1      391      422
     491        2      391      432
     492        4      392     1069
     493        1      394      424
     494        2      394      430
     495        4      395      423
     496        1      397      418
     497        2      397      429
     498        4      398      608
     499        4      398     1065
     500        1      400      420
     501        2      400      431
     502        4      401      251
     503        4      401      419
     504        2      403      430
     505        1      403     1062
     506        4      404      413
     507        4      404      530
     508        1      406      416
     509        2      406      432
     510        4      407      415
     511        2      409      429
     512        2      410      431
     513        2      410      432
     514        2      411      432
     515        2      412      429
     516        2      412      430
     517        5      413      414
     518        5      415      416
     519        5      417      418
     520        5      419      420
     521        5      421      422
     522        5      423      424
     523        5      425      426
     524        5      427      428
     525        2      430     1057
     526        2      431     1059
     527        1      433      486
     528        2      433      501
     529        4      434      164
     530        3      434      477
     531        4      434     1133
     532        3      435      476
     533        1      436      488
     534        2      436      503
     535        4      437      455
     536        3      437      480
     537        4      437      487
     538        3      438      479
     539        2      439      502
     540        1      439     1138
     541        4      440       14
     542        3      440      471
     543        4      440      489
     544        3      441      470
     545        1      442      492
     546        2      442      504
     547        3      443      474
     548        4      443      491
     549        4      443      521
     550        3      444      473
     551        2      445      503
     552        1      445     1142
     553        3      446      465
     554        4      446      493
     555        3      447      464
     556        1      448      496
     557        2      448      501
     558        3      449      468
     559        4      449      495
     560        3      450      467
     561        1      451      498
     562        2      451      504
     563        3      452      459
     564        4      452     1145
     565        3      453      458
     566        1      454      500
     567        2      454      502
     568        3      455      462
     569        4      455      499
     570        3      456      461
     571        2      457      503
     572        1      457     1146
     573        4      458      497
     574        1      460      500
     575        2      460      501
     576        4      461      479
     577        4      461      499
     578        1      463      494
     579        2      463      504
     580        4      464     1141
     581        1      466      496
     582        2      466      502
     583        4      467      495
     584        1      469      490
     585        2      469      501
     586        4      470       32
     587        4      470     1137
     588        1      472      492
     589        2      472      503
     590        4      473      491
     591        4      473      539
     592        2      475      502
     593        1      475     1134
     594        4      476      170
     595        4      476      485
     596        1      478      488
     597        2      478      504
     598        4      479      487
     599        2      481      501
     600        2      482      503
     601        2      482      504
     602        2      483      504
     603        2      484      501
     604        2      484      502
     605        5      485      486
     606        5      487      488
     607        5      489      490
     608        5      491      492
     609        5      493      494
     610        5      495      496
     611        5      497      498
     612        5      499      500
     613        2      502     1129
     614        2      503     1131
     615        1      505      558
     616        2      505      573
     617        4      506       20
     618        3      506      549
     619        4      506     1205
     620        3      507      548
     621        1      508      560
     622        2      508      575
     623        4      509      527
     624        3      509      552
     625        4      509      559
     626        3      510      551
     627        2      511      574
     628        1      511     1210
     629        4      512       86
     630        3      512      543
     631        4      512      561
     632        3      513      542
     633        1      514      564
     634        2      514      576
     635        3      515      546
     636        4      515      563
     637        4      515      593
     638        3      516      545
     639        2      517      575
     640        1      517     1214
     641        3      518      537
     642        4      518      565
     643        3      519      536
     644        1      520      568
     645        2      520      573
     646        3      521      540
     647        4      521      567
     648        3      522      539
     649        1      523      570
     650        2      523      576
     651        3      524      531
     652        4      524     1217
     653        3      525      530
     654        1      526      572
     655        2      526      574
     656        3      527      534
     657        4      527      571
     658        3      528      533
     659        2      529      575
     660        1      529     1218
     661        4      530      569
     662        1      532      572
     663        2      532      573
     664        4      533      551
     665        4      533      571
     666        1      535      566
     667        2      535      576
     668        4      536     1213
     669        1      538      568
     670        2      538      574
     671        4      539      567
     672        1      541      562
     673        2      541      573
     674        4      542      104
     675        4      542     1209
     676        1      544      564
     677        2      544      575
     678        4      545      563
     679        4      545      611
     680        2      547      574
     681        1      547     1206
     682        4      548       26
     683        4      548      557
     684        1      550      560
     685        2      550      576
     686        4      551      559
     687        2      553      573
     688        2      554      575
     689        2      554      576
     690        2      555      576
     691        2      556      573
     692        2      556      574
     693        5      557      558
     694        5      559      560
     695        5      561      562
     696        5      563      564
     697        5      565      566
     698        5      567      568
     699        5      569      570
     700        5      571      572
     701        2      574     1201
     702        2      575     1203
     703        1      577      630
     704        2      577      645
     705        4      578       92
     706        3      578      621
     707        4      578     1277
     708        3      579      620
     709        1      580      632
     710        2      580      647
     711        4      581      599
     712        3      581      624
     713        4      581      631
     714        3      582      623
     715        2      583      646
     716        1      583     1282
     717        4      584      158
     718        3      584      615
     719        4      584      633
     720        3      585      614
     721        1      586      636
     722        2      586      648
     723        4      587      449
     724        3      587      618
     725        4      587      635
     726        3      588      617
     727        2      589      647
     728        1      589     1286
     729        3      590      609
     730        4      590      637
     731        3      591      608
     732        1      592      640
     733        2      592      645
     734        3      593      612
     735        4      593      639
     736        3      594      611
     737        1      595      642
     738        2      595      648
     739        4      596      218
     740        3      596      603
     741        4      596     1289
     742        3      597      602
     743        1      598      644
     744        2      598      646
     745        3      599      606
     746        4      599      643
     747        3      600      605
     748        2      601      647
     749        1      601     1290
     750        4      602      260
     751        4      602      641
     752        1      604      644
     753        2      604      645
     754        4      605      623
     755        4      605      643
     756        1      607      638
     757        2      607      648
     758        4      608     1285
     759        1      610      640
     760        2      610      646
     761        4      611      639
     762        1      613      634
     763        2      613      645
     764        4      614      176
     765        4      614     1281
     766        1      616      636
     767        2      616      647
     768        4      617      467
     769        4      617      635
     770        2      619      646
     771        1      619     1278
     772        4      620       98
     773        4      620      629
     774        1      622      632
     775        2      622      648
     776        4      623      631
     777        2      625      645
     778        2      626      647
     779        2      626      648
     780        2      627      648
     781        2      628      645
     782        2      628      646
     783        5      629      630
     784        5      631      632
     785        5      633      634
     786        5      635      636
     787        5      637      638
     788        5      639      640
     789        5      641      642
     790        5      643      644
     791        2      646     1273
     792        2      647     1275
     793        1      649      702
     794        2      649      717
     795        3      650      693
     796        4      650     1349
     797        3      651      692
     798        1      652      704
     799        2      652      719
     800        4      653      671
     801        3      653      696
     802        4      653      703
     803        3      654      695
     804        2      655      718
     805        1      655     1354
     806        3      656      687
     807        4      656      705
     808        4      656      878
     809        3      657      686
     810        1      658      708
     811        2      658      720
     812        3      659      690
     813        4      659      707
     814        4      659      737
     815        3      660      689
     816        2      661      719
     817        1      661     1358
     818        3      662      681
     819        4      662      709
     820        3      663      680
     821        1      664      712
     822        2      664      717
     823        3      665      684
     824        4      665      711
     825        3      666      683
     826        1      667      714
     827        2      667      720
     828        3      668      675
     829        4      668     1361
     830        3      669      674
     831        1      670      716
     832        2      670      718
     833        3      671      678
     834        4      671      715
     835        3      672      677
     836        2      673      719
     837        1      673     1362
     838        4      674      713
     839        1      676      716
     840        2      676      717
     841        4      677      695
     842        4      677      715
     843        1      679      710
     844        2      679      720
     845        4      680     1357
     846        1      682      712
     847        2      682      718
     848        4      683      711
     849        1      685      706
     850        2      685      717
     851        4      686      896
     852        4      686     1353
     853        1      688      708
     854        2      688      719
     855        4      689      707
     856        4      689      755
     857        2      691      718
     858        1      691     1350
     859        4      692      701
     860        1      694      704
     861        2      694      720
     862        4      695      703
     863        2      697      717
     864        2      698      719
     865        2      698      720
     866        2      699      720
     867        2      700      717
     868        2      700      718
     869        5      701      702
     870        5      703      704
     871        5      705      706
     872        5      707      708
     873        5      709      710
     874        5      711      712
     875        5      713      714
     876        5      715      716
     877        2      718     1345
     878        2      719     1347
     879        1      721      774
     880        2      721      789
     881        3      722      765
     882        4      722      884
     883        4      722     1421
     884        3      723      764
     885        1      724      776
     886        2      724      791
     887        4      725      743
     888        3      725      768
     889        4      725      775
     890        3      726      767
     891        2      727      790
     892        1      727     1426
     893        3      728      759
     894        4      728      777
     895        4      728      950
     896        3      729      758
     897        1      730      780
     898        2      730      792
     899        3      731      762
     900        4      731      779
     901        4      731      809
     902        3      732      761
     903        2      733      791
     904        1      733     1430
     905        3      734      753
     906        4      734      781
     907        3      735      752
     908        1      736      784
     909        2      736      789
     910        3      737      756
     911        4      737      783
     912        3      738      755
     913        1      739      786
     914        2      739      792
     915        3      740      747
     916        4      740     1433
     917        3      741      746
     918        1      742      788
     919        2      742      790
     920        3      743      750
     921        4      743      787
     922        3      744      749
     923        2      745      791
     924        1      745     1434
     925        4      746      785
     926        1      748      788
     927        2      748      789
     928        4      749      767
     929        4      749      787
     930        1      751      782
     931        2      751      792
     932        4      752     1429
     933        1      754      784
     934        2      754      790
     935        4      755      783
     936        1      757      778
     937        2      757      789
     938        4      758      968
     939        4      758     1425
     940        1      760      780
     941        2      760      791
     942        4      761      779
     943        4      761      827
     944        2      763      790
     945        1      763     1422
     946        4      764      773
     947        4      764      890
     948        1      766      776
     949        2      766      792
     950        4      767      775
     951        2      769      789
     952        2      770      791
     953        2      770      792
     954        2      771      792
     955        2      772      789
     956        2      772      790
     957        5      773      774
     958        5      775      776
     959        5      777      778
     960        5      779      780
     961        5      781      782
     962        5      783      784
     963        5      785      786
     964        5      787      788
     965        2      790     1417
     966        2      791     1419
     967        1      793      846
     968        2      793      861
     969        3      794      837
     970        4      794      956
     971        4      794     1493
     972        3      795      836
     973        1      796      848
     974        2      796      863
     975        4      797      815
     976        3      797      840
     977        4      797      847
     978        3      798      839
     979        2      799      862
     980        1      799     1498
     981        3      800      831
     982        4      800      849
     983        4      800     1022
     984        3      801      830
     985        1      802      852
     986        2      802      864
     987        4      803      665
     988        3      803      834
     989        4      803      851
     990        3      804      833
     991        2      805      863
     992        1      805     1502
     993        3      806      825
     994        4      806      853
     995        3      807      824
     996        1      808      856
     997        2      808      861
     998        3      809      828
     999        4      809      855
    1000        3      810      827
    1001        1      811      858
    1002        2      811      864
    1003        3      812      819
    1004        4      812     1505
    1005        3      813      818
    1006        1      814      860
    1007        2      814      862
    1008        3      815      822
    1009        4      815      859
    1010        3      816      821
    1011        2      817      863
    1012        1      817     1506
    1013        4      818      857
    1014        1      820      860
    1015        2      820      861
    1016        4      821      839
    1017        4      821      859
    1018        1      823      854
    1019        2      823      864
    1020        4      824     1501
    1021        1      826      856
    1022        2      826      862
    1023        4      827      855
    1024        1      829      850
    1025        2      829      861
    1026        4      830     1040
    1027        4      830     1497
    1028        1      832      852
    1029        2      832      863
    1030        4      833      683
    1031        4      833      851
    1032        2      835      862
    1033        1      835     1494
    1034        4      836      845
    1035        4      836      962
    1036        1      838      848
    1037        2      838      864
    1038        4      839      847
    1039        2      841      861
    1040        2      842      863
    1041        2      842      864
    1042        2      843      864
    1043        2      844      861
    1044        2      844      862
    1045        5      845      846
    1046        5      847      848
    1047        5      849      850
    1048        5      851      852
    1049        5      853      854
    1050        5      855      856
    1051        5      857      858
    1052        5      859      860
    1053        2      862     1489
    1054        2      863     1491
    1055        1      865      918
    1056        2      865      933
    1057        3      866      909
    1058        4      866     1565
    1059        3      867      908
    1060        1      868      920
    1061        2      868      935
    1062        4      869      887
    1063        3      869      912
    1064        4      869      919
    1065        3      870      911
    1066        2      871      934
    1067        1      871     1570
    1068        3      872      903
    1069        4      872      921
    1070        4      872     1094
    1071        3      873      902
    1072        1      874      924
    1073        2      874      936
    1074        3      875      906
    1075        4      875      923
    1076        4      875      953
    1077        3      876      905
    1078        2      877      935
    1079        1      877     1574
    1080        3      878      897
    1081        4      878      925
    1082        3      879      896
    1083        1      880      928
    1084        2      880      933
    1085        3      881      900
    1086        4      881      927
    1087        3      882      899
    1088        1      883      930
    1089        2      883      936
    1090        3      884      891
    1091        4      884     1577
    1092        3      885      890
    1093        1      886      932
    1094        2      886      934
    1095        3      887      894
    1096        4      887      931
    1097        3      888      893
    1098        2      889      935
    1099        1      889     1578
    1100        4      890      929
    1101        1      892      932
    1102        2      892      933
    1103        4      893      911
    1104        4      893      931
    1105        1      895      926
    1106        2      895      936
    1107        4      896     1573
    1108        1      898      928
    1109        2      898      934
    1110        4      899      927
    1111        1      901      922
    1112        2      901      933
    1113        4      902     1112
    1114        4      902     1569
    1115        1      904      924
    1116        2      904      935
    1117        4      905      923
    1118        4      905      971
    1119        2      907      934
    1120        1      907     1566
    1121        4      908      917
    1122        1      910      920
    1123        2      910      936
    1124        4      911      919
    1125        2      913      933
    1126        2      914      935
    1127        2      914      936
    1128        2      915      936
    1129        2      916      933
    1130        2      916      934
    1131        5      917      918
    1132        5      919      920
    1133        5      921      922
    1134        5      923      924
    1135        5      925      926
    1136        5      927      928
    1137        5      929      930
    1138        5      931      932
    1139        2      934     1561
    1140        2      935     1563
    1141        1      937      990
    1142        2      937     1005
    1143        3      938      981
    1144        4      938     1100
    1145        4      938     1637
    1146        3      939      980
    1147        1      940      992
    1148        2      940     1007
    1149        4      941      959
    1150        3      941      984
    1151        4      941      991
    1152        3      942      983
    1153        2      943     1006
    1154        1      943     1642
    1155        3      944      975
    1156        4      944      993
    1157        4      944     1166
    1158        3      945      974
    1159        1      946      996
    1160        2      946     1008
    1161        3      947      978
    1162        4      947      995
    1163        4      947     1025
    1164        3      948      977
    1165        2      949     1007
    1166        1      949     1646
    1167        3      950      969
    1168        4      950      997
    1169        3      951      968
    1170        1      952     1000
    1171        2      952     1005
    1172        3      953      972
    1173        4      953      999
    1174        3      954      971
    1175        1      955     1002
    1176        2      955     1008
    1177        3      956      963
    1178        4      956     1649
    1179        3      957      962
    1180        1      958     1004
    1181        2      958     1006
    1182        3      959      966
    1183        4      959     1003
    1184        3      960      965
    1185        2      961     1007
    1186        1      961     1650
    1187        4      962     1001
    1188        1      964     1004
    1189        2      964     1005
    1190        4      965      983
    1191        4      965     1003
    1192        1      967      998
    1193        2      967     1008
    1194        4      968     1645
    1195        1      970     1000
    1196        2      970     1006
    1197        4      971      999
    1198        1      973      994
    1199        2      973     1005
    1200        4      974     1184
    1201        4      974     1641
    1202        1      976      996
    1203        2      976     1007
    1204        4      977      995
    1205        4      977     1043
    1206        2      979     1006
    1207        1      979     1638
    1208        4      980      989
    1209        4      980     1106
    1210        1      982      992
    1211        2      982     1008
    1212        4      983      991
    1213        2      985     1005
    1214        2      986     1007
    1215        2      986     1008
    1216        2      987     1008
    1217        2      988     1005
    1218        2      988     1006
    1219        5      989      990
    1220        5      991      992
    1221        5      993      994
    1222        5      995      996
    1223        5      997      998
    1224        5      999     1000
    1225        5     1001     1002
    1226        5     1003     1004
    1227        2     1006     1633
    1228        2     1007     1635
    1229        1     1009     1062
    1230        2     1009     1077
    1231        3     1010     1053
    1232        4     1010     1172
    1233        4     1010     1709
    1234        3     1011     1052
    1235        1     1012     1064
    1236        2     1012     1079
    1237        4     1013     1031
    1238        3     1013     1056
    1239        4     1013     1063
    1240        3     1014     1055
    1241        2     1015     1078
    1242        1     1015     1714
    1243        3     1016     1047
    1244        4     1016     1065
    1245        4     1016     1238
    1246        3     1017     1046
    1247        1     1018     1068
    1248        2     1018     1080
    1249        4     1019      881
    1250        3     1019     1050
    1251        4     1019     1067
    1252        3     1020     1049
    1253        2     1021     1079
    1254        1     1021     1718
    1255        3     1022     1041
    1256        4     1022     1069
    1257        3     1023     1040
    1258        1     1024     1072
    1259        2     1024     1077
    1260        3     1025     1044
    1261        4     1025     1071
    1262        3     1026     1043
    1263        1     1027     1074
    1264        2     1027     1080
    1265        4     1028      650
    1266        3     1028     1035
    1267        4     1028     1721
    1268        3     1029     1034
    1269        1     1030     1076
    1270        2     1030     1078
    1271        3     1031     1038
    1272        4     1031     1075
    1273        3     1032     1037
    1274        2     1033     1079
    1275        1     1033     1722
    1276        4     1034      692
    1277        4     1034     1073
    1278        1     1036     1076
    1279        2     1036     1077
    1280        4     1037     1055
    1281        4     1037     1075
    1282        1     1039     1070
    1283        2     1039     1080
    1284        4     1040     1717
    1285        1     1042     1072
    1286        2     1042     1078
    1287        4     1043     1071
    1288        1     1045     1066
    1289        2     1045     1077
    1290        4     1046     1256
    1291        4     1046     1713
    1292        1     1048     1068
    1293        2     1048     1079
    1294        4     1049      899
    1295        4     1049     1067
    1296        2     1051     1078
    1297        1     1051     1710
    1298        4     1052     1061
    1299        4     1052     1178
    1300        1     1054     1064
    1301        2     1054     1080
    1302        4     1055     1063
    1303        2     1057     1077
    1304        2     1058     1079
    1305        2     1058     1080
    1306        2     1059     1080
    1307        2     1060     1077
    1308        2     1060     1078
    1309        5     1061     1062
    1310        5     1063     1064
    1311        5     1065     1066
    1312        5     1067     1068
    1313        5     1069     1070
    1314        5     1071     1072
    1315        5     1073     1074
    1316        5     1075     1076
    1317        2     1078     1705
    1318        2     1079     1707
    1319        1     1081     1134
    1320        2     1081     1149
    1321        4     1082      812
    1322        3     1082     1125
    1323        4     1082     1781
    1324        3     1083     1124
    1325        1     1084     1136
    1326        2     1084     1151
    1327        4     1085     1103
    1328        3     1085     1128
    1329        4     1085     1135
    1330        3     1086     1127
    1331        2     1087     1150
    1332        1     1087     1786
    1333        4     1088      662
    1334        3     1088     1119
    1335        4     1088     1137
    1336        3     1089     1118
    1337        1     1090     1140
    1338        2     1090     1152
    1339        3     1091     1122
    1340        4     1091     1139
    1341        4     1091     1169
    1342        3     1092     1121
    1343        2     1093     1151
    1344        1     1093     1790
    1345        3     1094     1113
    1346        4     1094     1141
    1347        3     1095     1112
    1348        1     1096     1144
    1349        2     1096     1149
    1350        3     1097     1116
    1351        4     1097     1143
    1352        3     1098     1115
    1353        1     1099     1146
    1354        2     1099     1152
    1355        3     1100     1107
    1356        4     1100     1793
    1357        3     1101     1106
    1358        1     1102     1148
    1359        2     1102     1150
    1360        3     1103     1110
    1361        4     1103     1147
    1362        3     1104     1109
    1363        2     1105     1151
    1364        1     1105     1794
    1365        4     1106     1145
    1366        1     1108     1148
    1367        2     1108     1149
    1368        4     1109     1127
    1369        4     1109     1147
    1370        1     1111     1142
    1371        2     1111     1152
    1372        4     1112     1789
    1373        1     1114     1144
    1374        2     1114     1150
    1375        4     1115     1143
    1376        1     1117     1138
    1377        2     1117     1149
    1378        4     1118      680
    1379        4     1118     1785
    1380        1     1120     1140
    1381        2     1120     1151
    1382        4     1121     1139
    1383        4     1121     1187
    1384        2     1123     1150
    1385        1     1123     1782
    1386        4     1124      818
    1387        4     1124     1133
    1388        1     1126     1136
    1389        2     1126     1152
    1390        4     1127     1135
    1391        2     1129     1149
    1392        2     1130     1151
    1393        2     1130     1152
    1394        2     1131     1152
    1395        2     1132     1149
    1396        2     1132     1150
    1397        5     1133     1134
    1398        5     1135     1136
    1399        5     1137     1138
    1400        5     1139     1140
    1401        5     1141     1142
    1402        5     1143     1144
    1403        5     1145     1146
    1404        5     1147     1148
    1405        2     1150     1777
    1406        2     1151     1779
    1407        1     1153     1206
    1408        2     1153     1221
    1409        4     1154      668
    1410        3     1154     1197
    1411        4     1154     1853
    1412        3     1155     1196
    1413        1     1156     1208
    1414        2     1156     1223
    1415        4     1157     1175
    1416        3     1157     1200
    1417        4     1157     1207
    1418        3     1158     1199
    1419        2     1159     1222
    1420        1     1159     1858
    1421        4     1160      734
    1422        3     1160     1191
    1423        4     1160     1209
    1424        3     1161     1190
    1425        1     1162     1212
    1426        2     1162     1224
    1427        3     1163     1194
    1428        4     1163     1211
    1429        4     1163     1241
    1430        3     1164     1193
    1431        2     1165     1223
    1432        1     1165     1862
    1433        3     1166     1185
    1434        4     1166     1213
    1435        3     1167     1184
    1436        1     1168     1216
    1437        2     1168     1221
    1438        3     1169     1188
    1439        4     1169     1215
    1440        3     1170     1187
    1441        1     1171     1218
    1442        2     1171     1224
    1443        3     1172     1179
    1444        4     1172     1865
    1445        3     1173     1178
    1446        1     1174     1220
    1447        2     1174     1222
    1448        3     1175     1182
    1449        4     1175     1219
    1450        3     1176     1181
    1451        2     1177     1223
    1452        1     1177     1866
    1453        4     1178     1217
    1454        1     1180     1220
    1455        2     1180     1221
    1456        4     1181     1199
    1457        4     1181     1219
    1458        1     1183     1214
    1459        2     1183     1224
    1460        4     1184     1861
    1461        1     1186     1216
    1462        2     1186     1222
    1463        4     1187     1215
    1464        1     1189     1210
    1465        2     1189     1221
    1466        4     1190      752
    1467        4     1190     1857
    1468        1     1192     1212
    1469        2     1192     1223
    1470        4     1193     1211
    1471        4     1193     1259
    1472        2     1195     1222
    1473        1     1195     1854
    1474        4     1196      674
    1475        4     1196     1205
    1476        1     1198     1208
    1477        2     1198     1224
    1478        4     1199     1207
    1479        2     1201     1221
    1480        2     1202     1223
    1481        2     1202     1224
    1482        2     1203     1224
    1483        2     1204     1221
    1484        2     1204     1222
    1485        5     1205     1206
    1486        5     1207     1208
    1487        5     1209     1210
    1488        5     1211     1212
    1489        5     1213     1214
    1490        5     1215     1216
    1491        5     1217     1218
    1492        5     1219     1220
    1493        2     1222     1849
    1494        2     1223     1851
    1495        1     1225     1278
    1496        2     1225     1293
    1497        4     1226      740
    1498        3     1226     1269
    1499        4     1226     1925
    1500        3     1227     1268
    1501        1     1228     1280
    1502        2     1228     1295
    1503        4     1229     1247
    1504        3     1229     1272
    1505        4     1229     1279
    1506        3     1230     1271
    1507        2     1231     1294
    1508        1     1231     1930
    1509        4     1232      806
    1510        3     1232     1263
    1511        4     1232     1281
    1512        3     1233     1262
    1513        1     1234     1284
    1514        2     1234     1296
    1515        4     1235     1097
    1516        3     1235     1266
    1517        4     1235     1283
    1518        3     1236     1265
    1519        2     1237     1295
    1520        1     1237     1934
    1521        3     1238     1257
    1522        4     1238     1285
    1523        3     1239     1256
    1524        1     1240     1288
    1525        2     1240     1293
    1526        3     1241     1260
    1527        4     1241     1287
    1528        3     1242     1259
    1529        1     1243     1290
    1530        2     1243     1296
    1531        4     1244      866
    1532        3     1244     1251
    1533        4     1244     1937
    1534        3     1245     1250
    1535        1     1246     1292
    1536        2     1246     1294
    1537        3     1247     1254
    1538        4     1247     1291
    1539        3     1248     1253
    1540        2     1249     1295
    1541        1     1249     1938
    1542        4     1250      908
    1543        4     1250     1289
    1544        1     1252     1292
    1545        2     1252     1293
    1546        4     1253     1271
    1547        4     1253     1291
    1548        1     1255     1286
    1549        2     1255     1296
    1550        4     1256     1933
    1551        1     1258     1288
    1552        2     1258     1294
    1553        4     1259     1287
    1554        1     1261     1282
    1555        2     1261     1293
    1556        4     1262      824
    1557        4     1262     1929
    1558        1     1264     1284
    1559        2     1264     1295
    1560        4     1265     1115
    1561        4     1265     1283
    1562        2     1267     1294
    1563        1     1267     1926
    1564        4     1268      746
    1565        4     1268     1277
    1566        1     1270     1280
    1567        2     1270     1296
    1568        4     1271     1279
    1569        2     1273     1293
    1570        2     1274     1295
    1571        2     1274     1296
    1572        2     1275     1296
    1573        2     1276     1293
    1574        2     1276     1294
    1575        5     1277     1278
    1576        5     1279     1280
    1577        5     1281     1282
    1578        5     1283     1284
    1579        5     1285     1286
    1580        5     1287     1288
    1581        5     1289     1290
    1582        5     1291     1292
    1583        2     1294     1921
    1584        2     1295     1923
    1585        1     1297     1350
    1586        2     1297     1365
    1587        4     1298       53
    1588        3     1298     1341
    1589        3     1299     1340
    1590        1     1300     1352
    1591        2     1300     1367
    1592        4     1301     1319
    1593        3     1301     1344
    1594        4     1301     1351
    1595        3     1302     1343
    1596        1     1303       58
    1597        2     1303     1366
    1598        3     1304     1335
    1599        4     1304     1353
    1600        4     1304     1526
    1601        3     1305     1334
    1602        1     1306     1356
    1603        2     1306     1368
    1604        3     1307     1338
    1605        4     1307     1355
    1606        4     1307     1385
    1607        3     1308     1337
    1608        1     1309       62
    1609        2     1309     1367
    1610        3     1310     1329
    1611        4     1310     1357
    1612        3     1311     1328
    1613        1     1312     1360
    1614        2     1312     1365
    1615        3     1313     1332
    1616        4     1313     1359
    1617        3     1314     1331
    1618        1     1315     1362
    1619        2     1315     1368
    1620        4     1316       65
    1621        3     1316     1323
    1622        3     1317     1322
    1623        1     1318     1364
    1624        2     1318     1366
    1625        3     1319     1326
    1626        4     1319     1363
    1627        3     1320     1325
    1628        1     1321       66
    1629        2     1321     1367
    1630        4     1322     1361
    1631        1     1324     1364
    1632        2     1324     1365
    1633        4     1325     1343
    1634        4     1325     1363
    1635        1     1327     1358
    1636        2     1327     1368
    1637        4     1328       61
    1638        1     1330     1360
    1639        2     1330     1366
    1640        4     1331     1359
    1641        1     1333     1354
    1642        2     1333     1365
    1643        4     1334       57
    1644        4     1334     1544
    1645        1     1336     1356
    1646        2     1336     1367
    1647        4     1337     1355
    1648        4     1337     1403
    1649        1     1339       54
    1650        2     1339     1366
    1651        4     1340     1349
    1652        1     1342     1352
    1653        2     1342     1368
    1654        4     1343     1351
    1655        2     1345     1365
    1656        2     1346     1367
    1657        2     1346     1368
    1658        2     1347     1368
    1659        2     1348     1365
    1660        2     1348     1366
    1661        5     1349     1350
    1662        5     1351     1352
    1663        5     1353     1354
    1664        5     1355     1356
    1665        5     1357     1358
    1666        5     1359     1360
    1667        5     1361     1362
    1668        5     1363     1364
    1669        2     1366       49
    1670        2     1367       51
    1671        1     1369     1422
    1672        2     1369     1437
    1673        4     1370      125
    1674        3     1370     1413
    1675        4     1370     1532
    1676        3     1371     1412
    1677        1     1372     1424
    1678        2     1372     1439
    1679        4     1373     1391
    1680        3     1373     1416
    1681        4     1373     1423
    1682        3     1374     1415
    1683        1     1375      130
    1684        2     1375     1438
    1685        3     1376     1407
    1686        4     1376     1425
    1687        4     1376     1598
    1688        3     1377     1406
    1689        1     1378     1428
    1690        2     1378     1440
    1691        3     1379     1410
    1692        4     1379     1427
    1693        4     1379     1457
    1694        3     1380     1409
    1695        1     1381      134
    1696        2     1381     1439
    1697        3     1382     1401
    1698        4     1382     1429
    1699        3     1383     1400
    1700        1     1384     1432
    1701        2     1384     1437
    1702        3     1385     1404
    1703        4     1385     1431
    1704        3     1386     1403
    1705        1     1387     1434
    1706        2     1387     1440
    1707        4     1388      137
    1708        3     1388     1395
    1709        3     1389     1394
    1710        1     1390     1436
    1711        2     1390     1438
    1712        3     1391     1398
    1713        4     1391     1435
    1714        3     1392     1397
    1715        1     1393      138
    1716        2     1393     1439
    1717        4     1394     1433
    1718        1     1396     1436
    1719        2     1396     1437
    1720        4     1397     1415
    1721        4     1397     1435
    1722        1     1399     1430
    1723        2     1399     1440
    1724        4     1400      133
    1725        1     1402     1432
    1726        2     1402     1438
    1727        4     1403     1431
    1728        1     1405     1426
    1729        2     1405     1437
    1730        4     1406      129
    1731        4     1406     1616
    1732        1     1408     1428
    1733        2     1408     1439
    1734        4     1409     1427
    1735        4     1409     1475
    1736        1     1411      126
    1737        2     1411     1438
    1738        4     1412     1421
    1739        4     1412     1538
    1740        1     1414     1424
    1741        2     1414     1440
    1742        4     1415     1423
    1743        2     1417     1437
    1744        2     1418     1439
    1745        2     1418     1440
    1746        2     1419     1440
    1747        2     1420     1437
    1748        2     1420     1438
    1749        5     1421     1422
    1750        5     1423     1424
    1751        5     1425     1426
    1752        5     1427     1428
    1753        5     1429     1430
    1754        5     1431     1432
    1755        5     1433     1434
    1756        5     1435     1436
    1757        2     1438      121
    1758        2     1439      123
    1759        1     1441     1494
    1760        2     1441     1509
    1761        4     1442      197
    1762        3     1442     1485
    1763        4     1442     1604
    1764        3     1443     1484
    1765        1     1444     1496
    1766        2     1444     1511
    1767        4     1445     1463
    1768        3     1445     1488
    1769        4     1445     1495
    1770        3     1446     1487
    1771        1     1447      202
    1772        2     1447     1510
    1773        3     1448     1479
    1774        4     1448     1497
    1775        4     1448     1670
    1776        3     1449     1478
    1777        1     1450     1500
    1778        2     1450     1512
    1779        4     1451     1313
    1780        3     1451     1482
    1781        4     1451     1499
    1782        3     1452     1481
    1783        1     1453      206
    1784        2     1453     1511
    1785        3     1454     1473
    1786        4     1454     1501
    1787        3     1455     1472
    1788        1     1456     1504
    1789        2     1456     1509
    1790        3     1457     1476
    1791        4     1457     1503
    1792        3     1458     1475
    1793        1     1459     1506
    1794        2     1459     1512
    1795        4     1460      209
    1796        3     1460     1467
    1797        3     1461     1466
    1798        1     1462     1508
    1799        2     1462     1510
    1800        3     1463     1470
    1801        4     1463     1507
    1802        3     1464     1469
    1803        1     1465      210
    1804        2     1465     1511
    1805        4     1466     1505
    1806        1     1468     1508
    1807        2     1468     1509
    1808        4     1469     1487
    1809        4     1469     1507
    1810        1     1471     1502
    1811        2     1471     1512
    1812        4     1472      205
    1813        1     1474     1504
    1814        2     1474     1510
    1815        4     1475     1503
    1816        1     1477     1498
    1817        2     1477     1509
    1818        4     1478      201
    1819        4     1478     1688
    1820        1     1480     1500
    1821        2     1480     1511
    1822        4     1481     1331
    1823        4     1481     1499
    1824        1     1483      198
    1825        2     1483     1510
    1826        4     1484     1493
    1827        4     1484     1610
    1828        1     1486     1496
    1829        2     1486     1512
    1830        4     1487     1495
    1831        2     1489     1509
    1832        2     1490     1511
    1833        2     1490     1512
    1834        2     1491     1512
    1835        2     1492     1509
    1836        2     1492     1510
    1837        5     1493     1494
    1838        5     1495     1496
    1839        5     1497     1498
    1840        5     1499     1500
    1841        5     1501     1502
    1842        5     1503     1504
    1843        5     1505     1506
    1844        5     1507     1508
    1845        2     1510      193
    1846        2     1511      195
    1847        1     1513     1566
    1848        2     1513     1581
    1849        4     1514      269
    1850        3     1514     1557
    1851        3     1515     1556
    1852        1     1516     1568
    1853        2     1516     1583
    1854        4     1517     1535
    1855        3     1517     1560
    1856        4     1517     1567
    1857        3     1518     1559
    1858        1     1519      274
    1859        2     1519     1582
    1860        3     1520     1551
    1861        4     1520     1569
    1862        4     1520     1742
    1863        3     1521     1550
    1864        1     1522     1572
    1865        2     1522     1584
    1866        3     1523     1554
    1867        4     1523     1571
    1868        4     1523     1601
    1869        3     1524     1553
    1870        1     1525      278
    1871        2     1525     1583
    1872        3     1526     1545
    1873        4     1526     1573
    1874        3     1527     1544
    1875        1     1528     1576
    1876        2     1528     1581
    1877        3     1529     1548
    1878        4     1529     1575
    1879        3     1530     1547
    1880        1     1531     1578
    1881        2     1531     1584
    1882        4     1532      281
    1883        3     1532     1539
    1884        3     1533     1538
    1885        1     1534     1580
    1886        2     1534     1582
    1887        3     1535     1542
    1888        4     1535     1579
    1889        3     1536     1541
    1890        1     1537      282
    1891        2     1537     1583
    1892        4     1538     1577
    1893        1     1540     1580
    1894        2     1540     1581
    1895        4     1541     1559
    1896        4     1541     1579
    1897        1     1543     1574
    1898        2     1543     1584
    1899        4     1544      277
    1900        1     1546     1576
    1901        2     1546     1582
    1902        4     1547     1575
    1903        1     1549     1570
    1904        2     1549     1581
    1905        4     1550      273
    1906        4     1550     1760
    1907        1     1552     1572
    1908        2     1552     1583
    1909        4     1553     1571
    1910        4     1553     1619
    1911        1     1555      270
    1912        2     1555     1582
    1913        4     1556     1565
    1914        1     1558     1568
    1915        2     1558     1584
    1916        4     1559     1567
    1917        2     1561     1581
    1918        2     1562     1583
    1919        2     1562     1584
    1920        2     1563     1584
    1921        2     1564     1581
    1922        2     1564     1582
    1923        5     1565     1566
    1924        5     1567     1568
    1925        5     1569     1570
    1926        5     1571     1572
    1927        5     1573     1574
    1928        5     1575     1576
    1929        5     1577     1578
    1930        5     1579     1580
    1931        2     1582      265
    1932        2     1583      267
    1933        1     1585     1638
    1934        2     1585     1653
    1935        4     1586      341
    1936        3     1586     1629
    1937        4     1586     1748
    1938        3     1587     1628
    1939        1     1588     1640
    1940        2     1588     1655
    1941        4     1589     1607
    1942        3     1589     1632
    1943        4     1589     1639
    1944        3     1590     1631
    1945        1     1591      346
    1946        2     1591     1654
    1947        3     1592     1623
    1948        4     1592     1641
    1949        4     1592     1814
    1950        3     1593     1622
    1951        1     1594     1644
    1952        2     1594     1656
    1953        3     1595     1626
    1954        4     1595     1643
    1955        4     1595     1673
    1956        3     1596     1625
    1957        1     1597      350
    1958        2     1597     1655
    1959        3     1598     1617
    1960        4     1598     1645
    1961        3     1599     1616
    1962        1     1600     1648
    1963        2     1600     1653
    1964        3     1601     1620
    1965        4     1601     1647
    1966        3     1602     1619
    1967        1     1603     1650
    1968        2     1603     1656
    1969        4     1604      353
    1970        3     1604     1611
    1971        3     1605     1610
    1972        1     1606     1652
    1973        2     1606     1654
    1974        3     1607     1614
    1975        4     1607     1651
    1976        3     1608     1613
    1977        1     1609      354
    1978        2     1609     1655
    1979        4     1610     1649
    1980        1     1612     1652
    1981        2     1612     1653
    1982        4     1613     1631
    1983        4     1613     1651
    1984        1     1615     1646
    1985        2     1615     1656
    1986        4     1616      349
    1987        1     1618     1648
    1988        2     1618     1654
    1989        4     1619     1647
    1990        1     1621     1642
    1991        2     1621     1653
    1992        4     1622      345
    1993        4     1622     1832
    1994        1     1624     1644
    1995        2     1624     1655
    1996        4     1625     1643
    1997        4     1625     1691
    1998        1     1627      342
    1999        2     1627     1654
    2000        4     1628     1637
    2001        4     1628     1754
    2002        1     1630     1640
    2003        2     1630     1656
    2004        4     1631     1639
    2005        2     1633     1653
    2006        2     1634     1655
    2007        2     1634     1656
    2008        2     1635     1656
    2009        2     1636     1653
    2010        2     1636     1654
    2011        5     1637     1638
    2012        5     1639     1640
    2013        5     1641     1642
    2014        5     1643     1644
    2015        5     1645     1646
    2016        5     1647     1648
    2017        5     1649     1650
    2018        5     1651     1652
    2019        2     1654      337
    2020        2     1655      339
    2021        1     1657     1710
    2022        2     1657     1725
    2023        4     1658      413
    2024        3     1658     1701
    2025        4     1658     1820
    2026        3     1659     1700
    2027        1     1660     1712
    2028        2     1660     1727
    2029        4     1661     1679
    2030        3     1661     1704
    2031        4     1661     1711
    2032        3     1662     1703
    2033        1     1663      418
    2034        2     1663     1726
    2035        3     1664     1695
    2036        4     1664     1713
    2037        4     1664     1886
    2038        3     1665     1694
    2039        1     1666     1716
    2040        2     1666     1728
    2041        4     1667     1529
    2042        3     1667     1698
    2043        4     1667     1715
    2044        3     1668     1697
    2045        1     1669      422
    2046        2     1669     1727
    2047        3     1670     1689
    2048        4     1670     1717
    2049        3     1671     1688
    2050        1     1672     1720
    2051        2     1672     1725
    2052        3     1673     1692
    2053        4     1673     1719
    2054        3     1674     1691
    2055        1     1675     1722
    2056        2     1675     1728
    2057        4     1676      425
    2058        4     1676     1298
    2059        3     1676     1683
    2060        3     1677     1682
    2061        1     1678     1724
    2062        2     1678     1726
    2063        3     1679     1686
    2064        4     1679     1723
    2065        3     1680     1685
    2066        1     1681      426
    2067        2     1681     1727
    2068        4     1682     1340
    2069        4     1682     1721
    2070        1     1684     1724
    2071        2     1684     1725
    2072        4     1685     1703
    2073        4     1685     1723
    2074        1     1687     1718
    2075        2     1687     1728
    2076        4     1688      421
    2077        1     1690     1720
    2078        2     1690     1726
    2079        4     1691     1719
    2080        1     1693     1714
    2081        2     1693     1725
    2082        4     1694      417
    2083        4     1694     1904
    2084        1     1696     1716
    2085        2     1696     1727
    2086        4     1697     1547
    2087        4     1697     1715
    2088        1     1699      414
    2089        2     1699     1726
    2090        4     1700     1709
    2091        4     1700     1826
    2092        1     1702     1712
    2093        2     1702     1728
    2094        4     1703     1711
    2095        2     1705     1725
    2096        2     1706     1727
    2097        2     1706     1728
    2098        2     1707     1728
    2099        2     1708     1725
    2100        2     1708     1726
    2101        5     1709     1710
    2102        5     1711     1712
    2103        5     1713     1714
    2104        5     1715     1716
    2105        5     1717     1718
    2106        5     1719     1720
    2107        5     1721     1722
    2108        5     1723     1724
    2109        2     1726      409
    2110        2     1727      411
    2111        1     1729     1782
    2112        2     1729     1797
    2113        4     1730      485
    2114        4     1730     1460
    2115        3     1730     1773
    2116        3     1731     1772
    2117        1     1732     1784
    2118        2     1732     1799
    2119        4     1733     1751
    2120        3     1733     1776
    2121        4     1733     1783
    2122        3     1734     1775
    2123        1     1735      490
    2124        2     1735     1798
    2125        4     1736     1310
    2126        3     1736     1767
    2127        4     1736     1785
    2128        3     1737     1766
    2129        1     1738     1788
    2130        2     1738     1800
    2131        3     1739     1770
    2132        4     1739     1787
    2133        4     1739     1817
    2134        3     1740     1769
    2135        1     1741      494
    2136        2     1741     1799
    2137        3     1742     1761
    2138        4     1742     1789
    2139        3     1743     1760
    2140        1     1744     1792
    2141        2     1744     1797
    2142        3     1745     1764
    2143        4     1745     1791
    2144        3     1746     1763
    2145        1     1747     1794
    2146        2     1747     1800
    2147        4     1748      497
    2148        3     1748     1755
    2149        3     1749     1754
    2150        1     1750     1796
    2151        2     1750     1798
    2152        3     1751     1758
    2153        4     1751     1795
    2154        3     1752     1757
    2155        1     1753      498
    2156        2     1753     1799
    2157        4     1754     1793
    2158        1     1756     1796
    2159        2     1756     1797
    2160        4     1757     1775
    2161        4     1757     1795
    2162        1     1759     1790
    2163        2     1759     1800
    2164        4     1760      493
    2165        1     1762     1792
    2166        2     1762     1798
    2167        4     1763     1791
    2168        1     1765     1786
    2169        2     1765     1797
    2170        4     1766      489
    2171        4     1766     1328
    2172        1     1768     1788
    2173        2     1768     1799
    2174        4     1769     1787
    2175        4     1769     1835
    2176        1     1771      486
    2177        2     1771     1798
    2178        4     1772     1466
    2179        4     1772     1781
    2180        1     1774     1784
    2181        2     1774     1800
    2182        4     1775     1783
    2183        2     1777     1797
    2184        2     1778     1799
    2185        2     1778     1800
    2186        2     1779     1800
    2187        2     1780     1797
    2188        2     1780     1798
    2189        5     1781     1782
    2190        5     1783     1784
    2191        5     1785     1786
    2192        5     1787     1788
    2193        5     1789     1790
    2194        5     1791     1792
    2195        5     1793     1794
    2196        5     1795     1796
    2197        2     1798      481
    2198        2     1799      483
    2199        1     1801     1854
    2200        2     1801     1869
    2201        4     1802      557
    2202        4     1802     1316
    2203        3     1802     1845
    2204        3     1803     1844
    2205        1     1804     1856
    2206        2     1804     1871
    2207        4     1805     1823
    2208        3     1805     1848
    2209        4     1805     1855
    2210        3     1806     1847
    2211        1     1807      562
    2212        2     1807     1870
    2213        4     1808     1382
    2214        3     1808     1839
    2215        4     1808     1857
    2216        3     1809     1838
    2217        1     1810     1860
    2218        2     1810     1872
    2219        3     1811     1842
    2220        4     1811     1859
    2221        4     1811     1889
    2222        3     1812     1841
    2223        1     1813      566
    2224        2     1813     1871
    2225        3     1814     1833
    2226        4     1814     1861
    2227        3     1815     1832
    2228        1     1816     1864
    2229        2     1816     1869
    2230        3     1817     1836
    2231        4     1817     1863
    2232        3     1818     1835
    2233        1     1819     1866
    2234        2     1819     1872
    2235        4     1820      569
    2236        3     1820     1827
    2237        3     1821     1826
    2238        1     1822     1868
    2239        2     1822     1870
    2240        3     1823     1830
    2241        4     1823     1867
    2242        3     1824     1829
    2243        1     1825      570
    2244        2     1825     1871
    2245        4     1826     1865
    2246        1     1828     1868
    2247        2     1828     1869
    2248        4     1829     1847
    2249        4     1829     1867
    2250        1     1831     1862
    2251        2     1831     1872
    2252        4     1832      565
    2253        1     1834     1864
    2254        2     1834     1870
    2255        4     1835     1863
    2256        1     1837     1858
    2257        2     1837     1869
    2258        4     1838      561
    2259        4     1838     1400
    2260        1     1840     1860
    2261        2     1840     1871
    2262        4     1841     1859
    2263        4     1841     1907
    2264        1     1843      558
    2265        2     1843     1870
    2266        4     1844     1322
    2267        4     1844     1853
    2268        1     1846     1856
    2269        2     1846     1872
    2270        4     1847     1855
    2271        2     1849     1869
    2272        2     1850     1871
    2273        2     1850     1872
    2274        2     1851     1872
    2275        2     1852     1869
    2276        2     1852     1870
    2277        5     1853     1854
    2278        5     1855     1856
    2279        5     1857     1858
    2280        5     1859     1860
    2281        5     1861     1862
    2282        5     1863     1864
    2283        5     1865     1866
    2284        5     1867     1868
    2285        2     1870      553
    2286        2     1871      555
    2287        1     1873     1926
    2288        2     1873     1941
    2289        4     1874      629
    2290        4     1874     1388
    2291        3     1874     1917
    2292        3     1875     1916
    2293        1     1876     1928
    2294        2     1876     1943
    2295        4     1877     1895
    2296        3     1877     1920
    2297        4     1877     1927
    2298        3     1878     1919
    2299        1     1879      634
    2300        2     1879     1942
    2301        4     1880     1454
    2302        3     1880     1911
    2303        4     1880     1929
    2304        3     1881     1910
    2305        1     1882     1932
    2306        2     1882     1944
    2307        4     1883     1745
    2308        3     1883     1914
    2309        4     1883     1931
    2310        3     1884     1913
    2311        1     1885      638
    2312        2     1885     1943
    2313        3     1886     1905
    2314        4     1886     1933
    2315        3     1887     1904
    2316        1     1888     1936
    2317        2     1888     1941
    2318        3     1889     1908
    2319        4     1889     1935
    2320        3     1890     1907
    2321        1     1891     1938
    2322        2     1891     1944
    2323        4     1892      641
    2324        4     1892     1514
    2325        3     1892     1899
    2326        3     1893     1898
    2327        1     1894     1940
    2328        2     1894     1942
    2329        3     1895     1902
    2330        4     1895     1939
    2331        3     1896     1901
    2332        1     1897      642
    2333        2     1897     1943
    2334        4     1898     1556
    2335        4     1898     1937
    2336        1     1900     1940
    2337        2     1900     1941
    2338        4     1901     1919
    2339        4     1901     1939
    2340        1     1903     1934
    2341        2     1903     1944
    2342        4     1904      637
    2343        1     1906     1936
    2344        2     1906     1942
    2345        4     1907     1935
    2346        1     1909     1930
    2347        2     1909     1941
    2348        4     1910      633
    2349        4     1910     1472
    2350        1     1912     1932
    2351        2     1912     1943
    2352        4     1913     1763
    2353        4     1913     1931
    2354        1     1915      630
    2355        2     1915     1942
    2356        4     1916     1394
    2357        4     1916     1925
    2358        1     1918     1928
    2359        2     1918     1944
    2360        4     1919     1927
    2361        2     1921     1941
    2362        2     1922     1943
    2363        2     1922     1944
    2364        2     1923     1944
    2365        2     1924     1941
    2366        2     1924     1942
    2367        5     1925     1926
    2368        5     1927     1928
    2369        5     1929     1930
    2370        5     1931     1932
    2371        5     1933     1934
    2372        5     1935     1936
    2373        5     1937     1938
    2374        5     1939     1940
    2375        2     1942      625
    2376        2     1943      627
    2377        6     1945     1946
    2378        6     1945     1947
    2379        6     1948     1949
    2380        6     1948     1950
    2381        6     1951     1952
    2382        6     1951     1953
    2383        6     1954     1955
    2384        6     1954     1956
    2385        6     1957     1958
    2386        6     1957     1959
    2387        6     1960     1961
    2388        6     1960     1962
    2389        6     1963     1964
    2390        6     1963     1965
    2391        6     1966     1967
    2392        6     1966     1968
    2393        6     1969     1970
    2394        6     1969     1971
    2395        6     1972     1973
    2396        6     1972     1974
    2397        6     1975     1976
    2398        6     1975     1977
    2399        6     1978     1979
    2400        6     1978     1980
    2401        6     1981     1982
    2402        6     1981     1983
    2403        6     1984     1985
    2404        6     1984     1986
    2405        6     1987     1988
    2406        6     1987     1989
    2407        6     1990     1991
    2408        6     1990     1992
    2409        6     1993     1994
    2410        6     1993     1995
    2411        6     1996     1997
    2412        6     1996     1998
    2413        6     1999     2000
    2414        6     1999     2001
    2415        6     2002     2003
    2416        6     2002     2004
    2417        6     2005     2006
    2418        6     2005     2007
    2419        6     2008     2009
    2420        6     2008     2010
    2421        6     2011     2012
    2422        6     2011     2013
    2423        6     2014     2015
    2424        6     2014     2016
    2425        6     2017     2018
    2426        6     2017     2019
    2427        6     2020     2021
    2428        6     2020     2022
    2429        6     2023     2024
    2430        6     2023     2025
    2431        6     2026     2027
    2432        6     2026     2028
    2433        6     2029     2030
    2434        6     2029     2031
    2435        6     2032     2033
    2436        6     2032     2034
    2437        6     2035     2036
    2438        6     2035     2037
    2439        6     2038     2039
    2440        6     2038     2040
    2441        6     2041     2042
    2442        6     2041     2043
    2443        6     2044     2045
    2444        6     2044     2046
    2445        6     2047     2048
    2446        6     2047     2049
    2447        6     2050     2051
    2448        6     2050     2052
    2449        6     2053     2054
    2450        6     2053     2055
    2451        6     2056     2057
    2452        6     2056     2058
    2453        6     2059     2060
    2454        6     2059     2061
    2455        6     2062     2063
    2456        6     2062     2064
    2457        6     2065     2066
    2458        6     2065     2067
    2459        6     2068     2069
    2460        6     2068     2070
    2461        6     2071     2072
    2462        6     2071     2073
    2463        6     2074     2075
    2464        6     2074     2076
    2465        6     2077     2078
    2466        6     2077     2079
    2467        6     2080     2081
    2468        6     2080     2082
    2469        6     2083     2084
    2470        6     2083     2085
    2471        6     2086     2087
    2472        6     2086     2088
    2473        6     2089     2090
    2474        6     2089     2091
    2475        6     2092     2093
    2476        6     2092     2094
    2477        6     2095     2096
    2478        6     2095     2097
    2479        6     2098     2099
    2480        6     2098     2100
    2481        6     2101     2102
    2482        6     2101     2103
    2483        6     2104     2105
    2484        6     2104     2106
    2485        6     2107     2108
    2486        6     2107     2109
    2487        6     2110     2111
    2488        6     2110     2112
    2489        6     2113     2114
    2490        6     2113     2115
    2491        6     2116     2117
    2492        6     2116     2118
    2493        6     2119     2120
    2494        6     2119     2121
    2495        6     2122     2123
    2496        6     2122     2124
    2497        6     2125     2126
    2498        6     2125     2127
    2499        6     2128     2129
    2500        6     2128     2130
    2501        6     2131     2132
    2502        6     2131     2133
    2503        6     2134     2135
    2504        6     2134     2136
    2505        6     2137     2138
    2506        6     2137     2139
    2507        6     2140     2141
    2508        6     2140     2142
    2509        6     2143     2144
    2510        6     2143     2145
    2511        6     2146     2147
    2512        6     2146     2148
    2513        6     2149     2150
    2514        6     2149     2151
    2515        6     2152     2153
    2516        6     2152     2154
    2517        6     2155     2156
    2518        6     2155     2157
    2519        6     2158     2159
    2520        6     2158     2160
    2521        6     2161     2162
    2522        6     2161     2163
    2523        6     2164     2165
    2524        6     2164     2166
    2525        6     2167     2168
    2526        6     2167     2169
    2527        6     2170     2171
    2528        6     2170     2172
    2529        6     2173     2174
    2530        6     2173     2175
    2531        6     2176     2177
    2532        6     2176     2178
    2533        6     2179     2180
    2534        6     2179     2181
    2535        6     2182     2183
    2536        6     2182     2184
    2537        6     2185     2186
    2538        6     2185     2187
    2539        6     2188     2189
    2540        6     2188     2190
    2541        6     2191     2192
    2542        6     2191     2193
    2543        6     2194     2195
    2544        6     2194     2196
    2545        6     2197     2198
    2546        6     2197     2199
    2547        6     2200     2201
    2548        6     2200     2202
    2549        6     2203     2204
    2550        6     2203     2205
    2551        6     2206     2207
    2552        6     2206     2208
    2553        6     2209     2210
    2554        6     2209     2211
    2555        6     2212     2213
    2556        6     2212     2214
    2557        6     2215     2216
    2558        6     2215     2217
    2559        6     2218     2219
    2560        6     2218     2220
    2561        6     2221     2222
    2562        6     2221     2223
    2563        6     2224     2225
    2564        6     2224     2226
    2565        6     2227     2228
    2566        6     2227     2229
    2567        6     2230     2231
    2568        6     2230     2232
    2569        6     2233     2234
    2570        6     2233     2235
    2571        6     2236     2237
    2572        6     2236     2238
    2573        6     2239     2240
    2574        6     2239     2241
    2575        6     2242     2243
    2576        6     2242     2244
    2577        6     2245     2246
    2578        6     2245     2247
    2579        6     2248     2249
    2580        6     2248     2250
    2581        6     2251     2252
    2582        6     2251     2253
    2583        6     2254     2255
    2584        6     2254     2256
    2585        6     2257     2258
    2586        6     2257     2259
    2587        6     2260     2261
    2588        6     2260     2262
    2589        6     2263     2264
    2590        6     2263     2265
    2591        6     2266     2267
    2592        6     2266     2268

Angles

       1        1       54        1       69
       2        2       45        2      380
       3        2       45        2      701
       4        3      380        2      701
       5        1       56        4       71
       6        2       23        5       48
       7        3       23        5       55
       8        2       48        5       55
       9        1       70        7      706
      10        2       39        8       57
      11        2       39        8      230
      12        3       57        8      230
      13        1       60       10       72
      14        2       42       11       59
      15        2       42       11       89
      16        3       59       11       89
      17        1       71       13      710
      18        2       33       14       61
      19        2       33       14      440
      20        3       61       14      440
      21        1       64       16       69
      22        2       36       17       63
      23        2       36       17      155
      24        3       63       17      155
      25        1       66       19       72
      26        2       27       20      506
      27        2       27       20      713
      28        3      506       20      713
      29        1       68       22       70
      30        2        5       23       30
      31        3        5       23       67
      32        2       30       23       67
      33        1       71       25      714
      34        2       21       26       65
      35        2       21       26      548
      36        3       65       26      548
      37        1       68       28       69
      38        2       24       29       47
      39        2       24       29       67
      40        3       47       29       67
      41        1       62       31       72
      42        2       15       32      470
      43        2       15       32      709
      44        3      470       32      709
      45        1       64       34       70
      46        2       18       35       63
      47        2       18       35      185
      48        3       63       35      185
      49        1       58       37       69
      50        2        9       38      248
      51        2        9       38      705
      52        3      248       38      705
      53        1       60       40       71
      54        2       12       41       59
      55        2       12       41      107
      56        3       59       41      107
      57        1       70       43      702
      58        2        3       44       53
      59        2        3       44      386
      60        3       53       44      386
      61        1       56       46       72
      62        2        6       47       29
      63        2        6       47       55
      64        3       29       47       55
      65        4       69       49     1366
      66        4       71       50       72
      67        4       72       51     1367
      68        4       69       52       70
      69        5       44       53       54
      70        3       44       53     1298
      71        5       54       53     1298
      72        6        1       54       53
      73        7        1       54     1339
      74        6       53       54     1339
      75        3        5       55       47
      76        5        5       55       56
      77        5       47       55       56
      78        7        4       56       46
      79        6        4       56       55
      80        6       46       56       55
      81        5        8       57       58
      82        3        8       57     1334
      83        5       58       57     1334
      84        6       37       58       57
      85        7       37       58     1303
      86        6       57       58     1303
      87        3       11       59       41
      88        5       11       59       60
      89        5       41       59       60
      90        7       10       60       40
      91        6       10       60       59
      92        6       40       60       59
      93        5       14       61       62
      94        3       14       61     1328
      95        5       62       61     1328
      96        6       31       62       61
      97        7       31       62     1309
      98        6       61       62     1309
      99        3       17       63       35
     100        5       17       63       64
     101        5       35       63       64
     102        7       16       64       34
     103        6       16       64       63
     104        6       34       64       63
     105        5       26       65       66
     106        3       26       65     1316
     107        5       66       65     1316
     108        6       19       66       65
     109        7       19       66     1321
     110        6       65       66     1321
     111        3       23       67       29
     112        5       23       67       68
     113        5       29       67       68
     114        7       22       68       28
     115        6       22       68       67
     116        6       28       68       67
     117        8        1       69       16
     118        8        1       69       28
     119        8        1       69       37
     120        8        1       69       49
     121        8        1       69       52
     122        8       16       69       28
     123        8       16       69       37
     124        8       16       69       49
     125        8       16       69       52
     126        8       28       69       37
     127        8       28       69       49
     128        8       28       69       52
     129        8       37       69       49
     130        8       37       69       52
     131        8       49       69       52
     132        8        7       70       22
     133        8        7       70       34
     134        8        7       70       43
     135        8        7       70       52
     136        8        7       70      697
     137        8       22       70       34
     138        8       22       70       43
     139        8       22       70       52
     140        8       22       70      697
     141        8       34       70       43
     142        8       34       70       52
     143        8       34       70      697
     144        8       43       70       52
     145        8       43       70      697
     146        8       52       70      697
     147        8        4       71       13
     148        8        4       71       25
     149        8        4       71       40
     150        8        4       71       50
     151        8        4       71      699
     152        8       13       71       25
     153        8       13       71       40
     154        8       13       71       50
     155        8       13       71      699
     156        8       25       71       40
     157        8       25       71       50
     158        8       25       71      699
     159        8       40       71       50
     160        8       40       71      699
     161        8       50       71      699
     162        8       10       72       19
     163        8       10       72       31
     164        8       10       72       46
     165        8       10       72       50
     166        8       10       72       51
     167        8       19       72       31
     168        8       19       72       46
     169        8       19       72       50
     170        8       19       72       51
     171        8       31       72       46
     172        8       31       72       50
     173        8       31       72       51
     174        8       46       72       50
     175        8       46       72       51
     176        8       50       72       51
     177        1      126       73      141
     178        2      117       74      236
     179        2      117       74      773
     180        3      236       74      773
     181        1      128       76      143
     182        2       95       77      120
     183        3       95       77      127
     184        2      120       77      127
     185        1      142       79      778
     186        2      111       80      129
     187        2      111       80      302
     188        3      129       80      302
     189        1      132       82      144
     190        2      114       83      131
     191        2      114       83      161
     192        3      131       83      161
     193        1      143       85      782
     194        2      105       86      133
     195        2      105       86      512
     196        3      133       86      512
     197        1      136       88      141
     198        2       11       89      108
     199        3       11       89      135
     200        2      108       89      135
     201        1      138       91      144
     202        2       99       92      578
     203        2       99       92      785
     204        3      578       92      785
     205        1      140       94      142
     206        2       77       95      102
     207        3       77       95      139
     208        2      102       95      139
     209        1      143       97      786
     210        2       93       98      137
     211        2       93       98      620
     212        3      137       98      620
     213        1      140      100      141
     214        2       96      101      119
     215        2       96      101      139
     216        3      119      101      139
     217        1      134      103      144
     218        2       87      104      542
     219        2       87      104      781
     220        3      542      104      781
     221        1      136      106      142
     222        2       41      107       90
     223        3       41      107      135
     224        2       90      107      135
     225        1      130      109      141
     226        2       81      110      320
     227        2       81      110      777
     228        3      320      110      777
     229        1      132      112      143
     230        2       84      113      131
     231        2       84      113      179
     232        3      131      113      179
     233        1      142      115      774
     234        2       75      116      125
     235        2       75      116      242
     236        3      125      116      242
     237        1      128      118      144
     238        2       78      119      101
     239        2       78      119      127
     240        3      101      119      127
     241        4      141      121     1438
     242        4      143      122      144
     243        4      144      123     1439
     244        4      141      124      142
     245        5      116      125      126
     246        3      116      125     1370
     247        5      126      125     1370
     248        6       73      126      125
     249        7       73      126     1411
     250        6      125      126     1411
     251        3       77      127      119
     252        5       77      127      128
     253        5      119      127      128
     254        7       76      128      118
     255        6       76      128      127
     256        6      118      128      127
     257        5       80      129      130
     258        3       80      129     1406
     259        5      130      129     1406
     260        6      109      130      129
     261        7      109      130     1375
     262        6      129      130     1375
     263        3       83      131      113
     264        5       83      131      132
     265        5      113      131      132
     266        7       82      132      112
     267        6       82      132      131
     268        6      112      132      131
     269        5       86      133      134
     270        3       86      133     1400
     271        5      134      133     1400
     272        6      103      134      133
     273        7      103      134     1381
     274        6      133      134     1381
     275        3       89      135      107
     276        5       89      135      136
     277        5      107      135      136
     278        7       88      136      106
     279        6       88      136      135
     280        6      106      136      135
     281        5       98      137      138
     282        3       98      137     1388
     283        5      138      137     1388
     284        6       91      138      137
     285        7       91      138     1393
     286        6      137      138     1393
     287        3       95      139      101
     288        5       95      139      140
     289        5      101      139      140
     290        7       94      140      100
     291        6       94      140      139
     292        6      100      140      139
     293        8       73      141       88
     294        8       73      141      100
     295        8       73      141      109
     296        8       73      141      121
     297        8       73      141      124
     298        8       88      141      100
     299        8       88      141      109
     300        8       88      141      121
     301        8       88      141      124
     302        8      100      141      109
     303        8      100      141      121
     304        8      100      141      124
     305        8      109      141      121
     306        8      109      141      124
     307        8      121      141      124
     308        8       79      142       94
     309        8       79      142      106
     310        8       79      142      115
     311        8       79      142      124
     312        8       79      142      769
     313        8       94      142      106
     314        8       94      142      115
     315        8       94      142      124
     316        8       94      142      769
     317        8      106      142      115
     318        8      106      142      124
     319        8      106      142      769
     320        8      115      142      124
     321        8      115      142      769
     322        8      124      142      769
     323        8       76      143       85
     324        8       76      143       97
     325        8       76      143      112
     326        8       76      143      122
     327        8       76      143      771
     328        8       85      143       97
     329        8       85      143      112
     330        8       85      143      122
     331        8       85      143      771
     332        8       97      143      112
     333        8       97      143      122
     334        8       97      143      771
     335        8      112      143      122
     336        8      112      143      771
     337        8      122      143      771
     338        8       82      144       91
     339        8       82      144      103
     340        8       82      144      118
     341        8       82      144      122
     342        8       82      144      123
     343        8       91      144      103
     344        8       91      144      118
     345        8       91      144      122
     346        8       91      144      123
     347        8      103      144      118
     348        8      103      144      122
     349        8      103      144      123
     350        8      118      144      122
     351        8      118      144      123
     352        8      122      144      123
     353        1      198      145      213
     354        2      189      146      308
     355        2      189      146      845
     356        3      308      146      845
     357        1      200      148      215
     358        2      167      149      192
     359        3      167      149      199
     360        2      192      149      199
     361        1      214      151      850
     362        2      183      152      201
     363        2      183      152      374
     364        3      201      152      374
     365        1      204      154      216
     366        2       17      155      186
     367        3       17      155      203
     368        2      186      155      203
     369        1      215      157      854
     370        2      177      158      205
     371        2      177      158      584
     372        3      205      158      584
     373        1      208      160      213
     374        2       83      161      180
     375        3       83      161      207
     376        2      180      161      207
     377        1      210      163      216
     378        2      171      164      434
     379        2      171      164      857
     380        3      434      164      857
     381        1      212      166      214
     382        2      149      167      174
     383        3      149      167      211
     384        2      174      167      211
     385        1      215      169      858
     386        2      165      170      209
     387        2      165      170      476
     388        3      209      170      476
     389        1      212      172      213
     390        2      168      173      191
     391        2      168      173      211
     392        3      191      173      211
     393        1      206      175      216
     394        2      159      176      614
     395        2      159      176      853
     396        3      614      176      853
     397        1      208      178      214
     398        2      113      179      162
     399        3      113      179      207
     400        2      162      179      207
     401        1      202      181      213
     402        2      153      182      392
     403        2      153      182      849
     404        3      392      182      849
     405        1      204      184      215
     406        2       35      185      156
     407        3       35      185      203
     408        2      156      185      203
     409        1      214      187      846
     410        2      147      188      197
     411        2      147      188      314
     412        3      197      188      314
     413        1      200      190      216
     414        2      150      191      173
     415        2      150      191      199
     416        3      173      191      199
     417        4      213      193     1510
     418        4      215      194      216
     419        4      216      195     1511
     420        4      213      196      214
     421        5      188      197      198
     422        3      188      197     1442
     423        5      198      197     1442
     424        6      145      198      197
     425        7      145      198     1483
     426        6      197      198     1483
     427        3      149      199      191
     428        5      149      199      200
     429        5      191      199      200
     430        7      148      200      190
     431        6      148      200      199
     432        6      190      200      199
     433        5      152      201      202
     434        3      152      201     1478
     435        5      202      201     1478
     436        6      181      202      201
     437        7      181      202     1447
     438        6      201      202     1447
     439        3      155      203      185
     440        5      155      203      204
     441        5      185      203      204
     442        7      154      204      184
     443        6      154      204      203
     444        6      184      204      203
     445        5      158      205      206
     446        3      158      205     1472
     447        5      206      205     1472
     448        6      175      206      205
     449        7      175      206     1453
     450        6      205      206     1453
     451        3      161      207      179
     452        5      161      207      208
     453        5      179      207      208
     454        7      160      208      178
     455        6      160      208      207
     456        6      178      208      207
     457        5      170      209      210
     458        3      170      209     1460
     459        5      210      209     1460
     460        6      163      210      209
     461        7      163      210     1465
     462        6      209      210     1465
     463        3      167      211      173
     464        5      167      211      212
     465        5      173      211      212
     466        7      166      212      172
     467        6      166      212      211
     468        6      172      212      211
     469        8      145      213      160
     470        8      145      213      172
     471        8      145      213      181
     472        8      145      213      193
     473        8      145      213      196
     474        8      160      213      172
     475        8      160      213      181
     476        8      160      213      193
     477        8      160      213      196
     478        8      172      213      181
     479        8      172      213      193
     480        8      172      213      196
     481        8      181      213      193
     482        8      181      213      196
     483        8      193      213      196
     484        8      151      214      166
     485        8      151      214      178
     486        8      151      214      187
     487        8      151      214      196
     488        8      151      214      841
     489        8      166      214      178
     490        8      166      214      187
     491        8      166      214      196
     492        8      166      214      841
     493        8      178      214      187
     494        8      178      214      196
     495        8      178      214      841
     496        8      187      214      196
     497        8      187      214      841
     498        8      196      214      841
     499        8      148      215      157
     500        8      148      215      169
     501        8      148      215      184
     502        8      148      215      194
     503        8      148      215      843
     504        8      157      215      169
     505        8      157      215      184
     506        8      157      215      194
     507        8      157      215      843
     508        8      169      215      184
     509        8      169      215      194
     510        8      169      215      843
     511        8      184      215      194
     512        8      184      215      843
     513        8      194      215      843
     514        8      154      216      163
     515        8      154      216      175
     516        8      154      216      190
     517        8      154      216      194
     518        8      154      216      195
     519        8      163      216      175
     520        8      163      216      190
     521        8      163      216      194
     522        8      163      216      195
     523        8      175      216      190
     524        8      175      216      194
     525        8      175      216      195
     526        8      190      216      194
     527        8      190      216      195
     528        8      194      216      195
     529        1      270      217      285
     530        2      261      218      596
     531        2      261      218      917
     532        3      596      218      917
     533        1      272      220      287
     534        2      239      221      264
     535        3      239      221      271
     536        2      264      221      271
     537        1      286      223      922
     538        2      255      224      273
     539        2      255      224      446
     540        3      273      224      446
     541        1      276      226      288
     542        2      258      227      275
     543        2      258      227      305
     544        3      275      227      305
     545        1      287      229      926
     546        2        8      230      249
     547        3        8      230      277
     548        2      249      230      277
     549        1      280      232      285
     550        2      252      233      279
     551        2      252      233      371
     552        3      279      233      371
     553        1      282      235      288
     554        2       74      236      243
     555        3       74      236      929
     556        2      243      236      929
     557        1      284      238      286
     558        2      221      239      246
     559        3      221      239      283
     560        2      246      239      283
     561        1      287      241      930
     562        2      116      242      237
     563        3      116      242      281
     564        2      237      242      281
     565        1      284      244      285
     566        2      240      245      263
     567        2      240      245      283
     568        3      263      245      283
     569        1      278      247      288
     570        2       38      248      231
     571        3       38      248      925
     572        2      231      248      925
     573        1      280      250      286
     574        2      234      251      279
     575        2      234      251      401
     576        3      279      251      401
     577        1      274      253      285
     578        2      225      254      464
     579        2      225      254      921
     580        3      464      254      921
     581        1      276      256      287
     582        2      228      257      275
     583        2      228      257      323
     584        3      275      257      323
     585        1      286      259      918
     586        2      219      260      269
     587        2      219      260      602
     588        3      269      260      602
     589        1      272      262      288
     590        2      222      263      245
     591        2      222      263      271
     592        3      245      263      271
     593        4      285      265     1582
     594        4      287      266      288
     595        4      288      267     1583
     596        4      285      268      286
     597        5      260      269      270
     598        3      260      269     1514
     599        5      270      269     1514
     600        6      217      270      269
     601        7      217      270     1555
     602        6      269      270     1555
     603        3      221      271      263
     604        5      221      271      272
     605        5      263      271      272
     606        7      220      272      262
     607        6      220      272      271
     608        6      262      272      271
     609        5      224      273      274
     610        3      224      273     1550
     611        5      274      273     1550
     612        6      253      274      273
     613        7      253      274     1519
     614        6      273      274     1519
     615        3      227      275      257
     616        5      227      275      276
     617        5      257      275      276
     618        7      226      276      256
     619        6      226      276      275
     620        6      256      276      275
     621        5      230      277      278
     622        3      230      277     1544
     623        5      278      277     1544
     624        6      247      278      277
     625        7      247      278     1525
     626        6      277      278     1525
     627        3      233      279      251
     628        5      233      279      280
     629        5      251      279      280
     630        7      232      280      250
     631        6      232      280      279
     632        6      250      280      279
     633        5      242      281      282
     634        3      242      281     1532
     635        5      282      281     1532
     636        6      235      282      281
     637        7      235      282     1537
     638        6      281      282     1537
     639        3      239      283      245
     640        5      239      283      284
     641        5      245      283      284
     642        7      238      284      244
     643        6      238      284      283
     644        6      244      284      283
     645        8      217      285      232
     646        8      217      285      244
     647        8      217      285      253
     648        8      217      285      265
     649        8      217      285      268
     650        8      232      285      244
     651        8      232      285      253
     652        8      232      285      265
     653        8      232      285      268
     654        8      244      285      253
     655        8      244      285      265
     656        8      244      285      268
     657        8      253      285      265
     658        8      253      285      268
     659        8      265      285      268
     660        8      223      286      238
     661        8      223      286      250
     662        8      223      286      259
     663        8      223      286      268
     664        8      223      286      913
     665        8      238      286      250
     666        8      238      286      259
     667        8      238      286      268
     668        8      238      286      913
     669        8      250      286      259
     670        8      250      286      268
     671        8      250      286      913
     672        8      259      286      268
     673        8      259      286      913
     674        8      268      286      913
     675        8      220      287      229
     676        8      220      287      241
     677        8      220      287      256
     678        8      220      287      266
     679        8      220      287      915
     680        8      229      287      241
     681        8      229      287      256
     682        8      229      287      266
     683        8      229      287      915
     684        8      241      287      256
     685        8      241      287      266
     686        8      241      287      915
     687        8      256      287      266
     688        8      256      287      915
     689        8      266      287      915
     690        8      226      288      235
     691        8      226      288      247
     692        8      226      288      262
     693        8      226      288      266
     694        8      226      288      267
     695        8      235      288      247
     696        8      235      288      262
     697        8      235      288      266
     698        8      235      288      267
     699        8      247      288      262
     700        8      247      288      266
     701        8      247      288      267
     702        8      262      288      266
     703        8      262      288      267
     704        8      266      288      267
     705        1      342      289      357
     706        2      333      290      452
     707        2      333      290      989
     708        3      452      290      989
     709        1      344      292      359
     710        2      311      293      336
     711        3      311      293      343
     712        2      336      293      343
     713        1      358      295      994
     714        2      327      296      345
     715        2      327      296      518
     716        3      345      296      518
     717        1      348      298      360
     718        2      330      299      347
     719        2      330      299      377
     720        3      347      299      377
     721        1      359      301      998
     722        2       80      302      321
     723        3       80      302      349
     724        2      321      302      349
     725        1      352      304      357
     726        2      227      305      324
     727        3      227      305      351
     728        2      324      305      351
     729        1      354      307      360
     730        2      146      308      315
     731        3      146      308     1001
     732        2      315      308     1001
     733        1      356      310      358
     734        2      293      311      318
     735        3      293      311      355
     736        2      318      311      355
     737        1      359      313     1002
     738        2      188      314      309
     739        3      188      314      353
     740        2      309      314      353
     741        1      356      316      357
     742        2      312      317      335
     743        2      312      317      355
     744        3      335      317      355
     745        1      350      319      360
     746        2      110      320      303
     747        3      110      320      997
     748        2      303      320      997
     749        1      352      322      358
     750        2      257      323      306
     751        3      257      323      351
     752        2      306      323      351
     753        1      346      325      357
     754        2      297      326      536
     755        2      297      326      993
     756        3      536      326      993
     757        1      348      328      359
     758        2      300      329      347
     759        2      300      329      395
     760        3      347      329      395
     761        1      358      331      990
     762        2      291      332      341
     763        2      291      332      458
     764        3      341      332      458
     765        1      344      334      360
     766        2      294      335      317
     767        2      294      335      343
     768        3      317      335      343
     769        4      357      337     1654
     770        4      359      338      360
     771        4      360      339     1655
     772        4      357      340      358
     773        5      332      341      342
     774        3      332      341     1586
     775        5      342      341     1586
     776        6      289      342      341
     777        7      289      342     1627
     778        6      341      342     1627
     779        3      293      343      335
     780        5      293      343      344
     781        5      335      343      344
     782        7      292      344      334
     783        6      292      344      343
     784        6      334      344      343
     785        5      296      345      346
     786        3      296      345     1622
     787        5      346      345     1622
     788        6      325      346      345
     789        7      325      346     1591
     790        6      345      346     1591
     791        3      299      347      329
     792        5      299      347      348
     793        5      329      347      348
     794        7      298      348      328
     795        6      298      348      347
     796        6      328      348      347
     797        5      302      349      350
     798        3      302      349     1616
     799        5      350      349     1616
     800        6      319      350      349
     801        7      319      350     1597
     802        6      349      350     1597
     803        3      305      351      323
     804        5      305      351      352
     805        5      323      351      352
     806        7      304      352      322
     807        6      304      352      351
     808        6      322      352      351
     809        5      314      353      354
     810        3      314      353     1604
     811        5      354      353     1604
     812        6      307      354      353
     813        7      307      354     1609
     814        6      353      354     1609
     815        3      311      355      317
     816        5      311      355      356
     817        5      317      355      356
     818        7      310      356      316
     819        6      310      356      355
     820        6      316      356      355
     821        8      289      357      304
     822        8      289      357      316
     823        8      289      357      325
     824        8      289      357      337
     825        8      289      357      340
     826        8      304      357      316
     827        8      304      357      325
     828        8      304      357      337
     829        8      304      357      340
     830        8      316      357      325
     831        8      316      357      337
     832        8      316      357      340
     833        8      325      357      337
     834        8      325      357      340
     835        8      337      357      340
     836        8      295      358      310
     837        8      295      358      322
     838        8      295      358      331
     839        8      295      358      340
     840        8      295      358      985
     841        8      310      358      322
     842        8      310      358      331
     843        8      310      358      340
     844        8      310      358      985
     845        8      322      358      331
     846        8      322      358      340
     847        8      322      358      985
     848        8      331      358      340
     849        8      331      358      985
     850        8      340      358      985
     851        8      292      359      301
     852        8      292      359      313
     853        8      292      359      328
     854        8      292      359      338
     855        8      292      359      987
     856        8      301      359      313
     857        8      301      359      328
     858        8      301      359      338
     859        8      301      359      987
     860        8      313      359      328
     861        8      313      359      338
     862        8      313      359      987
     863        8      328      359      338
     864        8      328      359      987
     865        8      338      359      987
     866        8      298      360      307
     867        8      298      360      319
     868        8      298      360      334
     869        8      298      360      338
     870        8      298      360      339
     871        8      307      360      319
     872        8      307      360      334
     873        8      307      360      338
     874        8      307      360      339
     875        8      319      360      334
     876        8      319      360      338
     877        8      319      360      339
     878        8      334      360      338
     879        8      334      360      339
     880        8      338      360      339
     881        1      414      361      429
     882        2      405      362      524
     883        2      405      362     1061
     884        3      524      362     1061
     885        1      416      364      431
     886        2      383      365      408
     887        3      383      365      415
     888        2      408      365      415
     889        1      430      367     1066
     890        2      399      368      417
     891        2      399      368      590
     892        3      417      368      590
     893        1      420      370      432
     894        2      233      371      402
     895        3      233      371      419
     896        2      402      371      419
     897        1      431      373     1070
     898        2      152      374      393
     899        3      152      374      421
     900        2      393      374      421
     901        1      424      376      429
     902        2      299      377      396
     903        3      299      377      423
     904        2      396      377      423
     905        1      426      379      432
     906        2        2      380      387
     907        3        2      380     1073
     908        2      387      380     1073
     909        1      428      382      430
     910        2      365      383      390
     911        3      365      383      427
     912        2      390      383      427
     913        1      431      385     1074
     914        2       44      386      381
     915        3       44      386      425
     916        2      381      386      425
     917        1      428      388      429
     918        2      384      389      407
     919        2      384      389      427
     920        3      407      389      427
     921        1      422      391      432
     922        2      182      392      375
     923        3      182      392     1069
     924        2      375      392     1069
     925        1      424      394      430
     926        2      329      395      378
     927        3      329      395      423
     928        2      378      395      423
     929        1      418      397      429
     930        2      369      398      608
     931        2      369      398     1065
     932        3      608      398     1065
     933        1      420      400      431
     934        2      251      401      372
     935        3      251      401      419
     936        2      372      401      419
     937        1      430      403     1062
     938        2      363      404      413
     939        2      363      404      530
     940        3      413      404      530
     941        1      416      406      432
     942        2      366      407      389
     943        2      366      407      415
     944        3      389      407      415
     945        4      429      409     1726
     946        4      431      410      432
     947        4      432      411     1727
     948        4      429      412      430
     949        5      404      413      414
     950        3      404      413     1658
     951        5      414      413     1658
     952        6      361      414      413
     953        7      361      414     1699
     954        6      413      414     1699
     955        3      365      415      407
     956        5      365      415      416
     957        5      407      415      416
     958        7      364      416      406
     959        6      364      416      415
     960        6      406      416      415
     961        5      368      417      418
     962        3      368      417     1694
     963        5      418      417     1694
     964        6      397      418      417
     965        7      397      418     1663
     966        6      417      418     1663
     967        3      371      419      401
     968        5      371      419      420
     969        5      401      419      420
     970        7      370      420      400
     971        6      370      420      419
     972        6      400      420      419
     973        5      374      421      422
     974        3      374      421     1688
     975        5      422      421     1688
     976        6      391      422      421
     977        7      391      422     1669
     978        6      421      422     1669
     979        3      377      423      395
     980        5      377      423      424
     981        5      395      423      424
     982        7      376      424      394
     983        6      376      424      423
     984        6      394      424      423
     985        5      386      425      426
     986        3      386      425     1676
     987        5      426      425     1676
     988        6      379      426      425
     989        7      379      426     1681
     990        6      425      426     1681
     991        3      383      427      389
     992        5      383      427      428
     993        5      389      427      428
     994        7      382      428      388
     995        6      382      428      427
     996        6      388      428      427
     997        8      361      429      376
     998        8      361      429      388
     999        8      361      429      397
    1000        8      361      429      409
    1001        8      361      429      412
    1002        8      376      429      388
    1003        8      376      429      397
    1004        8      376      429      409
    1005        8      376      429      412
    1006        8      388      429      397
    1007        8      388      429      409
    1008        8      388      429      412
    1009        8      397      429      409
    1010        8      397      429      412
    1011        8      409      429      412
    1012        8      367      430      382
    1013        8      367      430      394
    1014        8      367      430      403
    1015        8      367      430      412
    1016        8      367      430     1057
    1017        8      382      430      394
    1018        8      382      430      403
    1019        8      382      430      412
    1020        8      382      430     1057
    1021        8      394      430      403
    1022        8      394      430      412
    1023        8      394      430     1057
    1024        8      403      430      412
    1025        8      403      430     1057
    1026        8      412      430     1057
    1027        8      364      431      373
    1028        8      364      431      385
    1029        8      364      431      400
    1030        8      364      431      410
    1031        8      364      431     1059
    1032        8      373      431      385
    1033        8      373      431      400
    1034        8      373      431      410
    1035        8      373      431     1059
    1036        8      385      431      400
    1037        8      385      431      410
    1038        8      385      431     1059
    1039        8      400      431      410
    1040        8      400      431     1059
    1041        8      410      431     1059
    1042        8      370      432      379
    1043        8      370      432      391
    1044        8      370      432      406
    1045        8      370      432      410
    1046        8      370      432      411
    1047        8      379      432      391
    1048        8      379      432      406
    1049        8      379      432      410
    1050        8      379      432      411
    1051        8      391      432      406
    1052        8      391      432      410
    1053        8      391      432      411
    1054        8      406      432      410
    1055        8      406      432      411
    1056        8      410      432      411
    1057        1      486      433      501
    1058        2      164      434      477
    1059        3      164      434     1133
    1060        2      477      434     1133
    1061        1      488      436      503
    1062        2      455      437      480
    1063        3      455      437      487
    1064        2      480      437      487
    1065        1      502      439     1138
    1066        2       14      440      471
    1067        3       14      440      489
    1068        2      471      440      489
    1069        1      492      442      504
    1070        2      474      443      491
    1071        2      474      443      521
    1072        3      491      443      521
    1073        1      503      445     1142
    1074        2      224      446      465
    1075        3      224      446      493
    1076        2      465      446      493
    1077        1      496      448      501
    1078        2      468      449      495
    1079        2      468      449      587
    1080        3      495      449      587
    1081        1      498      451      504
    1082        2      290      452      459
    1083        3      290      452     1145
    1084        2      459      452     1145
    1085        1      500      454      502
    1086        2      437      455      462
    1087        3      437      455      499
    1088        2      462      455      499
    1089        1      503      457     1146
    1090        2      332      458      453
    1091        3      332      458      497
    1092        2      453      458      497
    1093        1      500      460      501
    1094        2      456      461      479
    1095        2      456      461      499
    1096        3      479      461      499
    1097        1      494      463      504
    1098        2      254      464      447
    1099        3      254      464     1141
    1100        2      447      464     1141
    1101        1      496      466      502
    1102        2      450      467      495
    1103        2      450      467      617
    1104        3      495      467      617
    1105        1      490      469      501
    1106        2       32      470      441
    1107        3       32      470     1137
    1108        2      441      470     1137
    1109        1      492      472      503
    1110        2      444      473      491
    1111        2      444      473      539
    1112        3      491      473      539
    1113        1      502      475     1134
    1114        2      170      476      435
    1115        3      170      476      485
    1116        2      435      476      485
    1117        1      488      478      504
    1118        2      438      479      461
    1119        2      438      479      487
    1120        3      461      479      487
    1121        4      501      481     1798
    1122        4      503      482      504
    1123        4      504      483     1799
    1124        4      501      484      502
    1125        5      476      485      486
    1126        3      476      485     1730
    1127        5      486      485     1730
    1128        6      433      486      485
    1129        7      433      486     1771
    1130        6      485      486     1771
    1131        3      437      487      479
    1132        5      437      487      488
    1133        5      479      487      488
    1134        7      436      488      478
    1135        6      436      488      487
    1136        6      478      488      487
    1137        5      440      489      490
    1138        3      440      489     1766
    1139        5      490      489     1766
    1140        6      469      490      489
    1141        7      469      490     1735
    1142        6      489      490     1735
    1143        3      443      491      473
    1144        5      443      491      492
    1145        5      473      491      492
    1146        7      442      492      472
    1147        6      442      492      491
    1148        6      472      492      491
    1149        5      446      493      494
    1150        3      446      493     1760
    1151        5      494      493     1760
    1152        6      463      494      493
    1153        7      463      494     1741
    1154        6      493      494     1741
    1155        3      449      495      467
    1156        5      449      495      496
    1157        5      467      495      496
    1158        7      448      496      466
    1159        6      448      496      495
    1160        6      466      496      495
    1161        5      458      497      498
    1162        3      458      497     1748
    1163        5      498      497     1748
    1164        6      451      498      497
    1165        7      451      498     1753
    1166        6      497      498     1753
    1167        3      455      499      461
    1168        5      455      499      500
    1169        5      461      499      500
    1170        7      454      500      460
    1171        6      454      500      499
    1172        6      460      500      499
    1173        8      433      501      448
    1174        8      433      501      460
    1175        8      433      501      469
    1176        8      433      501      481
    1177        8      433      501      484
    1178        8      448      501      460
    1179        8      448      501      469
    1180        8      448      501      481
    1181        8      448      501      484
    1182        8      460      501      469
    1183        8      460      501      481
    1184        8      460      501      484
    1185        8      469      501      481
    1186        8      469      501      484
    1187        8      481      501      484
    1188        8      439      502      454
    1189        8      439      502      466
    1190        8      439      502      475
    1191        8      439      502      484
    1192        8      439      502     1129
    1193        8      454      502      466
    1194        8      454      502      475
    1195        8      454      502      484
    1196        8      454      502     1129
    1197        8      466      502      475
    1198        8      466      502      484
    1199        8      466      502     1129
    1200        8      475      502      484
    1201        8      475      502     1129
    1202        8      484      502     1129
    1203        8      436      503      445
    1204        8      436      503      457
    1205        8      436      503      472
    1206        8      436      503      482
    1207        8      436      503     1131
    1208        8      445      503      457
    1209        8      445      503      472
    1210        8      445      503      482
    1211        8      445      503     1131
    1212        8      457      503      472
    1213        8      457      503      482
    1214        8      457      503     1131
    1215        8      472      503      482
    1216        8      472      503     1131
    1217        8      482      503     1131
    1218        8      442      504      451
    1219        8      442      504      463
    1220        8      442      504      478
    1221        8      442      504      482
    1222        8      442      504      483
    1223        8      451      504      463
    1224        8      451      504      478
    1225        8      451      504      482
    1226        8      451      504      483
    1227        8      463      504      478
    1228        8      463      504      482
    1229        8      463      504      483
    1230        8      478      504      482
    1231        8      478      504      483
    1232        8      482      504      483
    1233        1      558      505      573
    1234        2       20      506      549
    1235        3       20      506     1205
    1236        2      549      506     1205
    1237        1      560      508      575
    1238        2      527      509      552
    1239        3      527      509      559
    1240        2      552      509      559
    1241        1      574      511     1210
    1242        2       86      512      543
    1243        3       86      512      561
    1244        2      543      512      561
    1245        1      564      514      576
    1246        2      546      515      563
    1247        2      546      515      593
    1248        3      563      515      593
    1249        1      575      517     1214
    1250        2      296      518      537
    1251        3      296      518      565
    1252        2      537      518      565
    1253        1      568      520      573
    1254        2      443      521      540
    1255        3      443      521      567
    1256        2      540      521      567
    1257        1      570      523      576
    1258        2      362      524      531
    1259        3      362      524     1217
    1260        2      531      524     1217
    1261        1      572      526      574
    1262        2      509      527      534
    1263        3      509      527      571
    1264        2      534      527      571
    1265        1      575      529     1218
    1266        2      404      530      525
    1267        3      404      530      569
    1268        2      525      530      569
    1269        1      572      532      573
    1270        2      528      533      551
    1271        2      528      533      571
    1272        3      551      533      571
    1273        1      566      535      576
    1274        2      326      536      519
    1275        3      326      536     1213
    1276        2      519      536     1213
    1277        1      568      538      574
    1278        2      473      539      522
    1279        3      473      539      567
    1280        2      522      539      567
    1281        1      562      541      573
    1282        2      104      542      513
    1283        3      104      542     1209
    1284        2      513      542     1209
    1285        1      564      544      575
    1286        2      516      545      563
    1287        2      516      545      611
    1288        3      563      545      611
    1289        1      574      547     1206
    1290        2       26      548      507
    1291        3       26      548      557
    1292        2      507      548      557
    1293        1      560      550      576
    1294        2      510      551      533
    1295        2      510      551      559
    1296        3      533      551      559
    1297        4      573      553     1870
    1298        4      575      554      576
    1299        4      576      555     1871
    1300        4      573      556      574
    1301        5      548      557      558
    1302        3      548      557     1802
    1303        5      558      557     1802
    1304        6      505      558      557
    1305        7      505      558     1843
    1306        6      557      558     1843
    1307        3      509      559      551
    1308        5      509      559      560
    1309        5      551      559      560
    1310        7      508      560      550
    1311        6      508      560      559
    1312        6      550      560      559
    1313        5      512      561      562
    1314        3      512      561     1838
    1315        5      562      561     1838
    1316        6      541      562      561
    1317        7      541      562     1807
    1318        6      561      562     1807
    1319        3      515      563      545
    1320        5      515      563      564
    1321        5      545      563      564
    1322        7      514      564      544
    1323        6      514      564      563
    1324        6      544      564      563
    1325        5      518      565      566
    1326        3      518      565     1832
    1327        5      566      565     1832
    1328        6      535      566      565
    1329        7      535      566     1813
    1330        6      565      566     1813
    1331        3      521      567      539
    1332        5      521      567      568
    1333        5      539      567      568
    1334        7      520      568      538
    1335        6      520      568      567
    1336        6      538      568      567
    1337        5      530      569      570
    1338        3      530      569     1820
    1339        5      570      569     1820
    1340        6      523      570      569
    1341        7      523      570     1825
    1342        6      569      570     1825
    1343        3      527      571      533
    1344        5      527      571      572
    1345        5      533      571      572
    1346        7      526      572      532
    1347        6      526      572      571
    1348        6      532      572      571
    1349        8      505      573      520
    1350        8      505      573      532
    1351        8      505      573      541
    1352        8      505      573      553
    1353        8      505      573      556
    1354        8      520      573      532
    1355        8      520      573      541
    1356        8      520      573      553
    1357        8      520      573      556
    1358        8      532      573      541
    1359        8      532      573      553
    1360        8      532      573      556
    1361        8      541      573      553
    1362        8      541      573      556
    1363        8      553      573      556
    1364        8      511      574      526
    1365        8      511      574      538
    1366        8      511      574      547
    1367        8      511      574      556
    1368        8      511      574     1201
    1369        8      526      574      538
    1370        8      526      574      547
    1371        8      526      574      556
    1372        8      526      574     1201
    1373        8      538      574      547
    1374        8      538      574      556
    1375        8      538      574     1201
    1376        8      547      574      556
    1377        8      547      574     1201
    1378        8      556      574     1201
    1379        8      508      575      517
    1380        8      508      575      529
    1381        8      508      575      544
    1382        8      508      575      554
    1383        8      508      575     1203
    1384        8      517      575      529
    1385        8      517      575      544
    1386        8      517      575      554
    1387        8      517      575     1203
    1388        8      529      575      544
    1389        8      529      575      554
    1390        8      529      575     1203
    1391        8      544      575      554
    1392        8      544      575     1203
    1393        8      554      575     1203
    1394        8      514      576      523
    1395        8      514      576      535
    1396        8      514      576      550
    1397        8      514      576      554
    1398        8      514      576      555
    1399        8      523      576      535
    1400        8      523      576      550
    1401        8      523      576      554
    1402        8      523      576      555
    1403        8      535      576      550
    1404        8      535      576      554
    1405        8      535      576      555
    1406        8      550      576      554
    1407        8      550      576      555
    1408        8      554      576      555
    1409        1      630      577      645
    1410        2       92      578      621
    1411        3       92      578     1277
    1412        2      621      578     1277
    1413        1      632      580      647
    1414        2      599      581      624
    1415        3      599      581      631
    1416        2      624      581      631
    1417        1      646      583     1282
    1418        2      158      584      615
    1419        3      158      584      633
    1420        2      615      584      633
    1421        1      636      586      648
    1422        2      449      587      618
    1423        3      449      587      635
    1424        2      618      587      635
    1425        1      647      589     1286
    1426        2      368      590      609
    1427        3      368      590      637
    1428        2      609      590      637
    1429        1      640      592      645
    1430        2      515      593      612
    1431        3      515      593      639
    1432        2      612      593      639
    1433        1      642      595      648
    1434        2      218      596      603
    1435        3      218      596     1289
    1436        2      603      596     1289
    1437        1      644      598      646
    1438        2      581      599      606
    1439        3      581      599      643
    1440        2      606      599      643
    1441        1      647      601     1290
    1442        2      260      602      597
    1443        3      260      602      641
    1444        2      597      602      641
    1445        1      644      604      645
    1446        2      600      605      623
    1447        2      600      605      643
    1448        3      623      605      643
    1449        1      638      607      648
    1450        2      398      608      591
    1451        3      398      608     1285
    1452        2      591      608     1285
    1453        1      640      610      646
    1454        2      545      611      594
    1455        3      545      611      639
    1456        2      594      611      639
    1457        1      634      613      645
    1458        2      176      614      585
    1459        3      176      614     1281
    1460        2      585      614     1281
    1461        1      636      616      647
    1462        2      467      617      588
    1463        3      467      617      635
    1464        2      588      617      635
    1465        1      646      619     1278
    1466        2       98      620      579
    1467        3       98      620      629
    1468        2      579      620      629
    1469        1      632      622      648
    1470        2      582      623      605
    1471        2      582      623      631
    1472        3      605      623      631
    1473        4      645      625     1942
    1474        4      647      626      648
    1475        4      648      627     1943
    1476        4      645      628      646
    1477        5      620      629      630
    1478        3      620      629     1874
    1479        5      630      629     1874
    1480        6      577      630      629
    1481        7      577      630     1915
    1482        6      629      630     1915
    1483        3      581      631      623
    1484        5      581      631      632
    1485        5      623      631      632
    1486        7      580      632      622
    1487        6      580      632      631
    1488        6      622      632      631
    1489        5      584      633      634
    1490        3      584      633     1910
    1491        5      634      633     1910
    1492        6      613      634      633
    1493        7      613      634     1879
    1494        6      633      634     1879
    1495        3      587      635      617
    1496        5      587      635      636
    1497        5      617      635      636
    1498        7      586      636      616
    1499        6      586      636      635
    1500        6      616      636      635
    1501        5      590      637      638
    1502        3      590      637     1904
    1503        5      638      637     1904
    1504        6      607      638      637
    1505        7      607      638     1885
    1506        6      637      638     1885
    1507        3      593      639      611
    1508        5      593      639      640
    1509        5      611      639      640
    1510        7      592      640      610
    1511        6      592      640      639
    1512        6      610      640      639
    1513        5      602      641      642
    1514        3      602      641     1892
    1515        5      642      641     1892
    1516        6      595      642      641
    1517        7      595      642     1897
    1518        6      641      642     1897
    1519        3      599      643      605
    1520        5      599      643      644
    1521        5      605      643      644
    1522        7      598      644      604
    1523        6      598      644      643
    1524        6      604      644      643
    1525        8      577      645      592
    1526        8      577      645      604
    1527        8      577      645      613
    1528        8      577      645      625
    1529        8      577      645      628
    1530        8      592      645      604
    1531        8      592      645      613
    1532        8      592      645      625
    1533        8      592      645      628
    1534        8      604      645      613
    1535        8      604      645      625
    1536        8      604      645      628
    1537        8      613      645      625
    1538        8      613      645      628
    1539        8      625      645      628
    1540        8      583      646      598
    1541        8      583      646      610
    1542        8      583      646      619
    1543        8      583      646      628
    1544        8      583      646     1273
    1545        8      598      646      610
    1546        8      598      646      619
    1547        8      598      646      628
    1548        8      598      646     1273
    1549        8      610      646      619
    1550        8      610      646      628
    1551        8      610      646     1273
    1552        8      619      646      628
    1553        8      619      646     1273
    1554        8      628      646     1273
    1555        8      580      647      589
    1556        8      580      647      601
    1557        8      580      647      616
    1558        8      580      647      626
    1559        8      580      647     1275
    1560        8      589      647      601
    1561        8      589      647      616
    1562        8      589      647      626
    1563        8      589      647     1275
    1564        8      601      647      616
    1565        8      601      647      626
    1566        8      601      647     1275
    1567        8      616      647      626
    1568        8      616      647     1275
    1569        8      626      647     1275
    1570        8      586      648      595
    1571        8      586      648      607
    1572        8      586      648      622
    1573        8      586      648      626
    1574        8      586      648      627
    1575        8      595      648      607
    1576        8      595      648      622
    1577        8      595      648      626
    1578        8      595      648      627
    1579        8      607      648      622
    1580        8      607      648      626
    1581        8      607      648      627
    1582        8      622      648      626
    1583        8      622      648      627
    1584        8      626      648      627
    1585        1      702      649      717
    1586        2      693      650     1028
    1587        2      693      650     1349
    1588        3     1028      650     1349
    1589        1      704      652      719
    1590        2      671      653      696
    1591        3      671      653      703
    1592        2      696      653      703
    1593        1      718      655     1354
    1594        2      687      656      705
    1595        2      687      656      878
    1596        3      705      656      878
    1597        1      708      658      720
    1598        2      690      659      707
    1599        2      690      659      737
    1600        3      707      659      737
    1601        1      719      661     1358
    1602        2      681      662      709
    1603        2      681      662     1088
    1604        3      709      662     1088
    1605        1      712      664      717
    1606        2      684      665      711
    1607        2      684      665      803
    1608        3      711      665      803
    1609        1      714      667      720
    1610        2      675      668     1154
    1611        2      675      668     1361
    1612        3     1154      668     1361
    1613        1      716      670      718
    1614        2      653      671      678
    1615        3      653      671      715
    1616        2      678      671      715
    1617        1      719      673     1362
    1618        2      669      674      713
    1619        2      669      674     1196
    1620        3      713      674     1196
    1621        1      716      676      717
    1622        2      672      677      695
    1623        2      672      677      715
    1624        3      695      677      715
    1625        1      710      679      720
    1626        2      663      680     1118
    1627        2      663      680     1357
    1628        3     1118      680     1357
    1629        1      712      682      718
    1630        2      666      683      711
    1631        2      666      683      833
    1632        3      711      683      833
    1633        1      706      685      717
    1634        2      657      686      896
    1635        2      657      686     1353
    1636        3      896      686     1353
    1637        1      708      688      719
    1638        2      660      689      707
    1639        2      660      689      755
    1640        3      707      689      755
    1641        1      718      691     1350
    1642        2      651      692      701
    1643        2      651      692     1034
    1644        3      701      692     1034
    1645        1      704      694      720
    1646        2      654      695      677
    1647        2      654      695      703
    1648        3      677      695      703
    1649        4       70      697      717
    1650        4      719      698      720
    1651        4       71      699      720
    1652        4      717      700      718
    1653        3        2      701      692
    1654        5        2      701      702
    1655        5      692      701      702
    1656        7       43      702      649
    1657        6       43      702      701
    1658        6      649      702      701
    1659        3      653      703      695
    1660        5      653      703      704
    1661        5      695      703      704
    1662        7      652      704      694
    1663        6      652      704      703
    1664        6      694      704      703
    1665        3       38      705      656
    1666        5       38      705      706
    1667        5      656      705      706
    1668        7        7      706      685
    1669        6        7      706      705
    1670        6      685      706      705
    1671        3      659      707      689
    1672        5      659      707      708
    1673        5      689      707      708
    1674        7      658      708      688
    1675        6      658      708      707
    1676        6      688      708      707
    1677        3       32      709      662
    1678        5       32      709      710
    1679        5      662      709      710
    1680        7       13      710      679
    1681        6       13      710      709
    1682        6      679      710      709
    1683        3      665      711      683
    1684        5      665      711      712
    1685        5      683      711      712
    1686        7      664      712      682
    1687        6      664      712      711
    1688        6      682      712      711
    1689        3       20      713      674
    1690        5       20      713      714
    1691        5      674      713      714
    1692        7       25      714      667
    1693        6       25      714      713
    1694        6      667      714      713
    1695        3      671      715      677
    1696        5      671      715      716
    1697        5      677      715      716
    1698        7      670      716      676
    1699        6      670      716      715
    1700        6      676      716      715
    1701        8      649      717      664
    1702        8      649      717      676
    1703        8      649      717      685
    1704        8      649      717      697
    1705        8      649      717      700
    1706        8      664      717      676
    1707        8      664      717      685
    1708        8      664      717      697
    1709        8      664      717      700
    1710        8      676      717      685
    1711        8      676      717      697
    1712        8      676      717      700
    1713        8      685      717      697
    1714        8      685      717      700
    1715        8      697      717      700
    1716        8      655      718      670
    1717        8      655      718      682
    1718        8      655      718      691
    1719        8      655      718      700
    1720        8      655      718     1345
    1721        8      670      718      682
    1722        8      670      718      691
    1723        8      670      718      700
    1724        8      670      718     1345
    1725        8      682      718      691
    1726        8      682      718      700
    1727        8      682      718     1345
    1728        8      691      718      700
    1729        8      691      718     1345
    1730        8      700      718     1345
    1731        8      652      719      661
    1732        8      652      719      673
    1733        8      652      719      688
    1734        8      652      719      698
    1735        8      652      719     1347
    1736        8      661      719      673
    1737        8      661      719      688
    1738        8      661      719      698
    1739        8      661      719     1347
    1740        8      673      719      688
    1741        8      673      719      698
    1742        8      673      719     1347
    1743        8      688      719      698
    1744        8      688      719     1347
    1745        8      698      719     1347
    1746        8      658      720      667
    1747        8      658      720      679
    1748        8      658      720      694
    1749        8      658      720      698
    1750        8      658      720      699
    1751        8      667      720      679
    1752        8      667      720      694
    1753        8      667      720      698
    1754        8      667      720      699
    1755        8      679      720      694
    1756        8      679      720      698
    1757        8      679      720      699
    1758        8      694      720      698
    1759        8      694      720      699
    1760        8      698      720      699
    1761        1      774      721      789
    1762        2      765      722      884
    1763        2      765      722     1421
    1764        3      884      722     1421
    1765        1      776      724      791
    1766        2      743      725      768
    1767        3      743      725      775
    1768        2      768      725      775
    1769        1      790      727     1426
    1770        2      759      728      777
    1771        2      759      728      950
    1772        3      777      728      950
    1773        1      780      730      792
    1774        2      762      731      779
    1775        2      762      731      809
    1776        3      779      731      809
    1777        1      791      733     1430
    1778        2      753      734      781
    1779        2      753      734     1160
    1780        3      781      734     1160
    1781        1      784      736      789
    1782        2      659      737      756
    1783        3      659      737      783
    1784        2      756      737      783
    1785        1      786      739      792
    1786        2      747      740     1226
    1787        2      747      740     1433
    1788        3     1226      740     1433
    1789        1      788      742      790
    1790        2      725      743      750
    1791        3      725      743      787
    1792        2      750      743      787
    1793        1      791      745     1434
    1794        2      741      746      785
    1795        2      741      746     1268
    1796        3      785      746     1268
    1797        1      788      748      789
    1798        2      744      749      767
    1799        2      744      749      787
    1800        3      767      749      787
    1801        1      782      751      792
    1802        2      735      752     1190
    1803        2      735      752     1429
    1804        3     1190      752     1429
    1805        1      784      754      790
    1806        2      689      755      738
    1807        3      689      755      783
    1808        2      738      755      783
    1809        1      778      757      789
    1810        2      729      758      968
    1811        2      729      758     1425
    1812        3      968      758     1425
    1813        1      780      760      791
    1814        2      732      761      779
    1815        2      732      761      827
    1816        3      779      761      827
    1817        1      790      763     1422
    1818        2      723      764      773
    1819        2      723      764      890
    1820        3      773      764      890
    1821        1      776      766      792
    1822        2      726      767      749
    1823        2      726      767      775
    1824        3      749      767      775
    1825        4      142      769      789
    1826        4      791      770      792
    1827        4      143      771      792
    1828        4      789      772      790
    1829        3       74      773      764
    1830        5       74      773      774
    1831        5      764      773      774
    1832        7      115      774      721
    1833        6      115      774      773
    1834        6      721      774      773
    1835        3      725      775      767
    1836        5      725      775      776
    1837        5      767      775      776
    1838        7      724      776      766
    1839        6      724      776      775
    1840        6      766      776      775
    1841        3      110      777      728
    1842        5      110      777      778
    1843        5      728      777      778
    1844        7       79      778      757
    1845        6       79      778      777
    1846        6      757      778      777
    1847        3      731      779      761
    1848        5      731      779      780
    1849        5      761      779      780
    1850        7      730      780      760
    1851        6      730      780      779
    1852        6      760      780      779
    1853        3      104      781      734
    1854        5      104      781      782
    1855        5      734      781      782
    1856        7       85      782      751
    1857        6       85      782      781
    1858        6      751      782      781
    1859        3      737      783      755
    1860        5      737      783      784
    1861        5      755      783      784
    1862        7      736      784      754
    1863        6      736      784      783
    1864        6      754      784      783
    1865        3       92      785      746
    1866        5       92      785      786
    1867        5      746      785      786
    1868        7       97      786      739
    1869        6       97      786      785
    1870        6      739      786      785
    1871        3      743      787      749
    1872        5      743      787      788
    1873        5      749      787      788
    1874        7      742      788      748
    1875        6      742      788      787
    1876        6      748      788      787
    1877        8      721      789      736
    1878        8      721      789      748
    1879        8      721      789      757
    1880        8      721      789      769
    1881        8      721      789      772
    1882        8      736      789      748
    1883        8      736      789      757
    1884        8      736      789      769
    1885        8      736      789      772
    1886        8      748      789      757
    1887        8      748      789      769
    1888        8      748      789      772
    1889        8      757      789      769
    1890        8      757      789      772
    1891        8      769      789      772
    1892        8      727      790      742
    1893        8      727      790      754
    1894        8      727      790      763
    1895        8      727      790      772
    1896        8      727      790     1417
    1897        8      742      790      754
    1898        8      742      790      763
    1899        8      742      790      772
    1900        8      742      790     1417
    1901        8      754      790      763
    1902        8      754      790      772
    1903        8      754      790     1417
    1904        8      763      790      772
    1905        8      763      790     1417
    1906        8      772      790     1417
    1907        8      724      791      733
    1908        8      724      791      745
    1909        8      724      791      760
    1910        8      724      791      770
    1911        8      724      791     1419
    1912        8      733      791      745
    1913        8      733      791      760
    1914        8      733      791      770
    1915        8      733      791     1419
    1916        8      745      791      760
    1917        8      745      791      770
    1918        8      745      791     1419
    1919        8      760      791      770
    1920        8      760      791     1419
    1921        8      770      791     1419
    1922        8      730      792      739
    1923        8      730      792      751
    1924        8      730      792      766
    1925        8      730      792      770
    1926        8      730      792      771
    1927        8      739      792      751
    1928        8      739      792      766
    1929        8      739      792      770
    1930        8      739      792      771
    1931        8      751      792      766
    1932        8      751      792      770
    1933        8      751      792      771
    1934        8      766      792      770
    1935        8      766      792      771
    1936        8      770      792      771
    1937        1      846      793      861
    1938        2      837      794      956
    1939        2      837      794     1493
    1940        3      956      794     1493
    1941        1      848      796      863
    1942        2      815      797      840
    1943        3      815      797      847
    1944        2      840      797      847
    1945        1      862      799     1498
    1946        2      831      800      849
    1947        2      831      800     1022
    1948        3      849      800     1022
    1949        1      852      802      864
    1950        2      665      803      834
    1951        3      665      803      851
    1952        2      834      803      851
    1953        1      863      805     1502
    1954        2      825      806      853
    1955        2      825      806     1232
    1956        3      853      806     1232
    1957        1      856      808      861
    1958        2      731      809      828
    1959        3      731      809      855
    1960        2      828      809      855
    1961        1      858      811      864
    1962        2      819      812     1082
    1963        2      819      812     1505
    1964        3     1082      812     1505
    1965        1      860      814      862
    1966        2      797      815      822
    1967        3      797      815      859
    1968        2      822      815      859
    1969        1      863      817     1506
    1970        2      813      818      857
    1971        2      813      818     1124
    1972        3      857      818     1124
    1973        1      860      820      861
    1974        2      816      821      839
    1975        2      816      821      859
    1976        3      839      821      859
    1977        1      854      823      864
    1978        2      807      824     1262
    1979        2      807      824     1501
    1980        3     1262      824     1501
    1981        1      856      826      862
    1982        2      761      827      810
    1983        3      761      827      855
    1984        2      810      827      855
    1985        1      850      829      861
    1986        2      801      830     1040
    1987        2      801      830     1497
    1988        3     1040      830     1497
    1989        1      852      832      863
    1990        2      683      833      804
    1991        3      683      833      851
    1992        2      804      833      851
    1993        1      862      835     1494
    1994        2      795      836      845
    1995        2      795      836      962
    1996        3      845      836      962
    1997        1      848      838      864
    1998        2      798      839      821
    1999        2      798      839      847
    2000        3      821      839      847
    2001        4      214      841      861
    2002        4      863      842      864
    2003        4      215      843      864
    2004        4      861      844      862
    2005        3      146      845      836
    2006        5      146      845      846
    2007        5      836      845      846
    2008        7      187      846      793
    2009        6      187      846      845
    2010        6      793      846      845
    2011        3      797      847      839
    2012        5      797      847      848
    2013        5      839      847      848
    2014        7      796      848      838
    2015        6      796      848      847
    2016        6      838      848      847
    2017        3      182      849      800
    2018        5      182      849      850
    2019        5      800      849      850
    2020        7      151      850      829
    2021        6      151      850      849
    2022        6      829      850      849
    2023        3      803      851      833
    2024        5      803      851      852
    2025        5      833      851      852
    2026        7      802      852      832
    2027        6      802      852      851
    2028        6      832      852      851
    2029        3      176      853      806
    2030        5      176      853      854
    2031        5      806      853      854
    2032        7      157      854      823
    2033        6      157      854      853
    2034        6      823      854      853
    2035        3      809      855      827
    2036        5      809      855      856
    2037        5      827      855      856
    2038        7      808      856      826
    2039        6      808      856      855
    2040        6      826      856      855
    2041        3      164      857      818
    2042        5      164      857      858
    2043        5      818      857      858
    2044        7      169      858      811
    2045        6      169      858      857
    2046        6      811      858      857
    2047        3      815      859      821
    2048        5      815      859      860
    2049        5      821      859      860
    2050        7      814      860      820
    2051        6      814      860      859
    2052        6      820      860      859
    2053        8      793      861      808
    2054        8      793      861      820
    2055        8      793      861      829
    2056        8      793      861      841
    2057        8      793      861      844
    2058        8      808      861      820
    2059        8      808      861      829
    2060        8      808      861      841
    2061        8      808      861      844
    2062        8      820      861      829
    2063        8      820      861      841
    2064        8      820      861      844
    2065        8      829      861      841
    2066        8      829      861      844
    2067        8      841      861      844
    2068        8      799      862      814
    2069        8      799      862      826
    2070        8      799      862      835
    2071        8      799      862      844
    2072        8      799      862     1489
    2073        8      814      862      826
    2074        8      814      862      835
    2075        8      814      862      844
    2076        8      814      862     1489
    2077        8      826      862      835
    2078        8      826      862      844
    2079        8      826      862     1489
    2080        8      835      862      844
    2081        8      835      862     1489
    2082        8      844      862     1489
    2083        8      796      863      805
    2084        8      796      863      817
    2085        8      796      863      832
    2086        8      796      863      842
    2087        8      796      863     1491
    2088        8      805      863      817
    2089        8      805      863      832
    2090        8      805      863      842
    2091        8      805      863     1491
    2092        8      817      863      832
    2093        8      817      863      842
    2094        8      817      863     1491
    2095        8      832      863      842
    2096        8      832      863     1491
    2097        8      842      863     1491
    2098        8      802      864      811
    2099        8      802      864      823
    2100        8      802      864      838
    2101        8      802      864      842
    2102        8      802      864      843
    2103        8      811      864      823
    2104        8      811      864      838
    2105        8      811      864      842
    2106        8      811      864      843
    2107        8      823      864      838
    2108        8      823      864      842
    2109        8      823      864      843
    2110        8      838      864      842
    2111        8      838      864      843
    2112        8      842      864      843
    2113        1      918      865      933
    2114        2      909      866     1244
    2115        2      909      866     1565
    2116        3     1244      866     1565
    2117        1      920      868      935
    2118        2      887      869      912
    2119        3      887      869      919
    2120        2      912      869      919
    2121        1      934      871     1570
    2122        2      903      872      921
    2123        2      903      872     1094
    2124        3      921      872     1094
    2125        1      924      874      936
    2126        2      906      875      923
    2127        2      906      875      953
    2128        3      923      875      953
    2129        1      935      877     1574
    2130        2      656      878      897
    2131        3      656      878      925
    2132        2      897      878      925
    2133        1      928      880      933
    2134        2      900      881      927
    2135        2      900      881     1019
    2136        3      927      881     1019
    2137        1      930      883      936
    2138        2      722      884      891
    2139        3      722      884     1577
    2140        2      891      884     1577
    2141        1      932      886      934
    2142        2      869      887      894
    2143        3      869      887      931
    2144        2      894      887      931
    2145        1      935      889     1578
    2146        2      764      890      885
    2147        3      764      890      929
    2148        2      885      890      929
    2149        1      932      892      933
    2150        2      888      893      911
    2151        2      888      893      931
    2152        3      911      893      931
    2153        1      926      895      936
    2154        2      686      896      879
    2155        3      686      896     1573
    2156        2      879      896     1573
    2157        1      928      898      934
    2158        2      882      899      927
    2159        2      882      899     1049
    2160        3      927      899     1049
    2161        1      922      901      933
    2162        2      873      902     1112
    2163        2      873      902     1569
    2164        3     1112      902     1569
    2165        1      924      904      935
    2166        2      876      905      923
    2167        2      876      905      971
    2168        3      923      905      971
    2169        1      934      907     1566
    2170        2      867      908      917
    2171        2      867      908     1250
    2172        3      917      908     1250
    2173        1      920      910      936
    2174        2      870      911      893
    2175        2      870      911      919
    2176        3      893      911      919
    2177        4      286      913      933
    2178        4      935      914      936
    2179        4      287      915      936
    2180        4      933      916      934
    2181        3      218      917      908
    2182        5      218      917      918
    2183        5      908      917      918
    2184        7      259      918      865
    2185        6      259      918      917
    2186        6      865      918      917
    2187        3      869      919      911
    2188        5      869      919      920
    2189        5      911      919      920
    2190        7      868      920      910
    2191        6      868      920      919
    2192        6      910      920      919
    2193        3      254      921      872
    2194        5      254      921      922
    2195        5      872      921      922
    2196        7      223      922      901
    2197        6      223      922      921
    2198        6      901      922      921
    2199        3      875      923      905
    2200        5      875      923      924
    2201        5      905      923      924
    2202        7      874      924      904
    2203        6      874      924      923
    2204        6      904      924      923
    2205        3      248      925      878
    2206        5      248      925      926
    2207        5      878      925      926
    2208        7      229      926      895
    2209        6      229      926      925
    2210        6      895      926      925
    2211        3      881      927      899
    2212        5      881      927      928
    2213        5      899      927      928
    2214        7      880      928      898
    2215        6      880      928      927
    2216        6      898      928      927
    2217        3      236      929      890
    2218        5      236      929      930
    2219        5      890      929      930
    2220        7      241      930      883
    2221        6      241      930      929
    2222        6      883      930      929
    2223        3      887      931      893
    2224        5      887      931      932
    2225        5      893      931      932
    2226        7      886      932      892
    2227        6      886      932      931
    2228        6      892      932      931
    2229        8      865      933      880
    2230        8      865      933      892
    2231        8      865      933      901
    2232        8      865      933      913
    2233        8      865      933      916
    2234        8      880      933      892
    2235        8      880      933      901
    2236        8      880      933      913
    2237        8      880      933      916
    2238        8      892      933      901
    2239        8      892      933      913
    2240        8      892      933      916
    2241        8      901      933      913
    2242        8      901      933      916
    2243        8      913      933      916
    2244        8      871      934      886
    2245        8      871      934      898
    2246        8      871      934      907
    2247        8      871      934      916
    2248        8      871      934     1561
    2249        8      886      934      898
    2250        8      886      934      907
    2251        8      886      934      916
    2252        8      886      934     1561
    2253        8      898      934      907
    2254        8      898      934      916
    2255        8      898      934     1561
    2256        8      907      934      916
    2257        8      907      934     1561
    2258        8      916      934     1561
    2259        8      868      935      877
    2260        8      868      935      889
    2261        8      868      935      904
    2262        8      868      935      914
    2263        8      868      935     1563
    2264        8      877      935      889
    2265        8      877      935      904
    2266        8      877      935      914
    2267        8      877      935     1563
    2268        8      889      935      904
    2269        8      889      935      914
    2270        8      889      935     1563
    2271        8      904      935      914
    2272        8      904      935     1563
    2273        8      914      935     1563
    2274        8      874      936      883
    2275        8      874      936      895
    2276        8      874      936      910
    2277        8      874      936      914
    2278        8      874      936      915
    2279        8      883      936      895
    2280        8      883      936      910
    2281        8      883      936      914
    2282        8      883      936      915
    2283        8      895      936      910
    2284        8      895      936      914
    2285        8      895      936      915
    2286        8      910      936      914
    2287        8      910      936      915
    2288        8      914      936      915
    2289        1      990      937     1005
    2290        2      981      938     1100
    2291        2      981      938     1637
    2292        3     1100      938     1637
    2293        1      992      940     1007
    2294        2      959      941      984
    2295        3      959      941      991
    2296        2      984      941      991
    2297        1     1006      943     1642
    2298        2      975      944      993
    2299        2      975      944     1166
    2300        3      993      944     1166
    2301        1      996      946     1008
    2302        2      978      947      995
    2303        2      978      947     1025
    2304        3      995      947     1025
    2305        1     1007      949     1646
    2306        2      728      950      969
    2307        3      728      950      997
    2308        2      969      950      997
    2309        1     1000      952     1005
    2310        2      875      953      972
    2311        3      875      953      999
    2312        2      972      953      999
    2313        1     1002      955     1008
    2314        2      794      956      963
    2315        3      794      956     1649
    2316        2      963      956     1649
    2317        1     1004      958     1006
    2318        2      941      959      966
    2319        3      941      959     1003
    2320        2      966      959     1003
    2321        1     1007      961     1650
    2322        2      836      962      957
    2323        3      836      962     1001
    2324        2      957      962     1001
    2325        1     1004      964     1005
    2326        2      960      965      983
    2327        2      960      965     1003
    2328        3      983      965     1003
    2329        1      998      967     1008
    2330        2      758      968      951
    2331        3      758      968     1645
    2332        2      951      968     1645
    2333        1     1000      970     1006
    2334        2      905      971      954
    2335        3      905      971      999
    2336        2      954      971      999
    2337        1      994      973     1005
    2338        2      945      974     1184
    2339        2      945      974     1641
    2340        3     1184      974     1641
    2341        1      996      976     1007
    2342        2      948      977      995
    2343        2      948      977     1043
    2344        3      995      977     1043
    2345        1     1006      979     1638
    2346        2      939      980      989
    2347        2      939      980     1106
    2348        3      989      980     1106
    2349        1      992      982     1008
    2350        2      942      983      965
    2351        2      942      983      991
    2352        3      965      983      991
    2353        4      358      985     1005
    2354        4     1007      986     1008
    2355        4      359      987     1008
    2356        4     1005      988     1006
    2357        3      290      989      980
    2358        5      290      989      990
    2359        5      980      989      990
    2360        7      331      990      937
    2361        6      331      990      989
    2362        6      937      990      989
    2363        3      941      991      983
    2364        5      941      991      992
    2365        5      983      991      992
    2366        7      940      992      982
    2367        6      940      992      991
    2368        6      982      992      991
    2369        3      326      993      944
    2370        5      326      993      994
    2371        5      944      993      994
    2372        7      295      994      973
    2373        6      295      994      993
    2374        6      973      994      993
    2375        3      947      995      977
    2376        5      947      995      996
    2377        5      977      995      996
    2378        7      946      996      976
    2379        6      946      996      995
    2380        6      976      996      995
    2381        3      320      997      950
    2382        5      320      997      998
    2383        5      950      997      998
    2384        7      301      998      967
    2385        6      301      998      997
    2386        6      967      998      997
    2387        3      953      999      971
    2388        5      953      999     1000
    2389        5      971      999     1000
    2390        7      952     1000      970
    2391        6      952     1000      999
    2392        6      970     1000      999
    2393        3      308     1001      962
    2394        5      308     1001     1002
    2395        5      962     1001     1002
    2396        7      313     1002      955
    2397        6      313     1002     1001
    2398        6      955     1002     1001
    2399        3      959     1003      965
    2400        5      959     1003     1004
    2401        5      965     1003     1004
    2402        7      958     1004      964
    2403        6      958     1004     1003
    2404        6      964     1004     1003
    2405        8      937     1005      952
    2406        8      937     1005      964
    2407        8      937     1005      973
    2408        8      937     1005      985
    2409        8      937     1005      988
    2410        8      952     1005      964
    2411        8      952     1005      973
    2412        8      952     1005      985
    2413        8      952     1005      988
    2414        8      964     1005      973
    2415        8      964     1005      985
    2416        8      964     1005      988
    2417        8      973     1005      985
    2418        8      973     1005      988
    2419        8      985     1005      988
    2420        8      943     1006      958
    2421        8      943     1006      970
    2422        8      943     1006      979
    2423        8      943     1006      988
    2424        8      943     1006     1633
    2425        8      958     1006      970
    2426        8      958     1006      979
    2427        8      958     1006      988
    2428        8      958     1006     1633
    2429        8      970     1006      979
    2430        8      970     1006      988
    2431        8      970     1006     1633
    2432        8      979     1006      988
    2433        8      979     1006     1633
    2434        8      988     1006     1633
    2435        8      940     1007      949
    2436        8      940     1007      961
    2437        8      940     1007      976
    2438        8      940     1007      986
    2439        8      940     1007     1635
    2440        8      949     1007      961
    2441        8      949     1007      976
    2442        8      949     1007      986
    2443        8      949     1007     1635
    2444        8      961     1007      976
    2445        8      961     1007      986
    2446        8      961     1007     1635
    2447        8      976     1007      986
    2448        8      976     1007     1635
    2449        8      986     1007     1635
    2450        8      946     1008      955
    2451        8      946     1008      967
    2452        8      946     1008      982
    2453        8      946     1008      986
    2454        8      946     1008      987
    2455        8      955     1008      967
    2456        8      955     1008      982
    2457        8      955     1008      986
    2458        8      955     1008      987
    2459        8      967     1008      982
    2460        8      967     1008      986
    2461        8      967     1008      987
    2462        8      982     1008      986
    2463        8      982     1008      987
    2464        8      986     1008      987
    2465        1     1062     1009     1077
    2466        2     1053     1010     1172
    2467        2     1053     1010     1709
    2468        3     1172     1010     1709
    2469        1     1064     1012     1079
    2470        2     1031     1013     1056
    2471        3     1031     1013     1063
    2472        2     1056     1013     1063
    2473        1     1078     1015     1714
    2474        2     1047     1016     1065
    2475        2     1047     1016     1238
    2476        3     1065     1016     1238
    2477        1     1068     1018     1080
    2478        2      881     1019     1050
    2479        3      881     1019     1067
    2480        2     1050     1019     1067
    2481        1     1079     1021     1718
    2482        2      800     1022     1041
    2483        3      800     1022     1069
    2484        2     1041     1022     1069
    2485        1     1072     1024     1077
    2486        2      947     1025     1044
    2487        3      947     1025     1071
    2488        2     1044     1025     1071
    2489        1     1074     1027     1080
    2490        2      650     1028     1035
    2491        3      650     1028     1721
    2492        2     1035     1028     1721
    2493        1     1076     1030     1078
    2494        2     1013     1031     1038
    2495        3     1013     1031     1075
    2496        2     1038     1031     1075
    2497        1     1079     1033     1722
    2498        2      692     1034     1029
    2499        3      692     1034     1073
    2500        2     1029     1034     1073
    2501        1     1076     1036     1077
    2502        2     1032     1037     1055
    2503        2     1032     1037     1075
    2504        3     1055     1037     1075
    2505        1     1070     1039     1080
    2506        2      830     1040     1023
    2507        3      830     1040     1717
    2508        2     1023     1040     1717
    2509        1     1072     1042     1078
    2510        2      977     1043     1026
    2511        3      977     1043     1071
    2512        2     1026     1043     1071
    2513        1     1066     1045     1077
    2514        2     1017     1046     1256
    2515        2     1017     1046     1713
    2516        3     1256     1046     1713
    2517        1     1068     1048     1079
    2518        2      899     1049     1020
    2519        3      899     1049     1067
    2520        2     1020     1049     1067
    2521        1     1078     1051     1710
    2522        2     1011     1052     1061
    2523        2     1011     1052     1178
    2524        3     1061     1052     1178
    2525        1     1064     1054     1080
    2526        2     1014     1055     1037
    2527        2     1014     1055     1063
    2528        3     1037     1055     1063
    2529        4      430     1057     1077
    2530        4     1079     1058     1080
    2531        4      431     1059     1080
    2532        4     1077     1060     1078
    2533        3      362     1061     1052
    2534        5      362     1061     1062
    2535        5     1052     1061     1062
    2536        7      403     1062     1009
    2537        6      403     1062     1061
    2538        6     1009     1062     1061
    2539        3     1013     1063     1055
    2540        5     1013     1063     1064
    2541        5     1055     1063     1064
    2542        7     1012     1064     1054
    2543        6     1012     1064     1063
    2544        6     1054     1064     1063
    2545        3      398     1065     1016
    2546        5      398     1065     1066
    2547        5     1016     1065     1066
    2548        7      367     1066     1045
    2549        6      367     1066     1065
    2550        6     1045     1066     1065
    2551        3     1019     1067     1049
    2552        5     1019     1067     1068
    2553        5     1049     1067     1068
    2554        7     1018     1068     1048
    2555        6     1018     1068     1067
    2556        6     1048     1068     1067
    2557        3      392     1069     1022
    2558        5      392     1069     1070
    2559        5     1022     1069     1070
    2560        7      373     1070     1039
    2561        6      373     1070     1069
    2562        6     1039     1070     1069
    2563        3     1025     1071     1043
    2564        5     1025     1071     1072
    2565        5     1043     1071     1072
    2566        7     1024     1072     1042
    2567        6     1024     1072     1071
    2568        6     1042     1072     1071
    2569        3      380     1073     1034
    2570        5      380     1073     1074
    2571        5     1034     1073     1074
    2572        7      385     1074     1027
    2573        6      385     1074     1073
    2574        6     1027     1074     1073
    2575        3     1031     1075     1037
    2576        5     1031     1075     1076
    2577        5     1037     1075     1076
    2578        7     1030     1076     1036
    2579        6     1030     1076     1075
    2580        6     1036     1076     1075
    2581        8     1009     1077     1024
    2582        8     1009     1077     1036
    2583        8     1009     1077     1045
    2584        8     1009     1077     1057
    2585        8     1009     1077     1060
    2586        8     1024     1077     1036
    2587        8     1024     1077     1045
    2588        8     1024     1077     1057
    2589        8     1024     1077     1060
    2590        8     1036     1077     1045
    2591        8     1036     1077     1057
    2592        8     1036     1077     1060
    2593        8     1045     1077     1057
    2594        8     1045     1077     1060
    2595        8     1057     1077     1060
    2596        8     1015     1078     1030
    2597        8     1015     1078     1042
    2598        8     1015     1078     1051
    2599        8     1015     1078     1060
    2600        8     1015     1078     1705
    2601        8     1030     1078     1042
    2602        8     1030     1078     1051
    2603        8     1030     1078     1060
    2604        8     1030     1078     1705
    2605        8     1042     1078     1051
    2606        8     1042     1078     1060
    2607        8     1042     1078     1705
    2608        8     1051     1078     1060
    2609        8     1051     1078     1705
    2610        8     1060     1078     1705
    2611        8     1012     1079     1021
    2612        8     1012     1079     1033
    2613        8     1012     1079     1048
    2614        8     1012     1079     1058
    2615        8     1012     1079     1707
    2616        8     1021     1079     1033
    2617        8     1021     1079     1048
    2618        8     1021     1079     1058
    2619        8     1021     1079     1707
    2620        8     1033     1079     1048
    2621        8     1033     1079     1058
    2622        8     1033     1079     1707
    2623        8     1048     1079     1058
    2624        8     1048     1079     1707
    2625        8     1058     1079     1707
    2626        8     1018     1080     1027
    2627        8     1018     1080     1039
    2628        8     1018     1080     1054
    2629        8     1018     1080     1058
    2630        8     1018     1080     1059
    2631        8     1027     1080     1039
    2632        8     1027     1080     1054
    2633        8     1027     1080     1058
    2634        8     1027     1080     1059
    2635        8     1039     1080     1054
    2636        8     1039     1080     1058
    2637        8     1039     1080     1059
    2638        8     1054     1080     1058
    2639        8     1054     1080     1059
    2640        8     1058     1080     1059
    2641        1     1134     1081     1149
    2642        2      812     1082     1125
    2643        3      812     1082     1781
    2644        2     1125     1082     1781
    2645        1     1136     1084     1151
    2646        2     1103     1085     1128
    2647        3     1103     1085     1135
    2648        2     1128     1085     1135
    2649        1     1150     1087     1786
    2650        2      662     1088     1119
    2651        3      662     1088     1137
    2652        2     1119     1088     1137
    2653        1     1140     1090     1152
    2654        2     1122     1091     1139
    2655        2     1122     1091     1169
    2656        3     1139     1091     1169
    2657        1     1151     1093     1790
    2658        2      872     1094     1113
    2659        3      872     1094     1141
    2660        2     1113     1094     1141
    2661        1     1144     1096     1149
    2662        2     1116     1097     1143
    2663        2     1116     1097     1235
    2664        3     1143     1097     1235
    2665        1     1146     1099     1152
    2666        2      938     1100     1107
    2667        3      938     1100     1793
    2668        2     1107     1100     1793
    2669        1     1148     1102     1150
    2670        2     1085     1103     1110
    2671        3     1085     1103     1147
    2672        2     1110     1103     1147
    2673        1     1151     1105     1794
    2674        2      980     1106     1101
    2675        3      980     1106     1145
    2676        2     1101     1106     1145
    2677        1     1148     1108     1149
    2678        2     1104     1109     1127
    2679        2     1104     1109     1147
    2680        3     1127     1109     1147
    2681        1     1142     1111     1152
    2682        2      902     1112     1095
    2683        3      902     1112     1789
    2684        2     1095     1112     1789
    2685        1     1144     1114     1150
    2686        2     1098     1115     1143
    2687        2     1098     1115     1265
    2688        3     1143     1115     1265
    2689        1     1138     1117     1149
    2690        2      680     1118     1089
    2691        3      680     1118     1785
    2692        2     1089     1118     1785
    2693        1     1140     1120     1151
    2694        2     1092     1121     1139
    2695        2     1092     1121     1187
    2696        3     1139     1121     1187
    2697        1     1150     1123     1782
    2698        2      818     1124     1083
    2699        3      818     1124     1133
    2700        2     1083     1124     1133
    2701        1     1136     1126     1152
    2702        2     1086     1127     1109
    2703        2     1086     1127     1135
    2704        3     1109     1127     1135
    2705        4      502     1129     1149
    2706        4     1151     1130     1152
    2707        4      503     1131     1152
    2708        4     1149     1132     1150
    2709        3      434     1133     1124
    2710        5      434     1133     1134
    2711        5     1124     1133     1134
    2712        7      475     1134     1081
    2713        6      475     1134     1133
    2714        6     1081     1134     1133
    2715        3     1085     1135     1127
    2716        5     1085     1135     1136
    2717        5     1127     1135     1136
    2718        7     1084     1136     1126
    2719        6     1084     1136     1135
    2720        6     1126     1136     1135
    2721        3      470     1137     1088
    2722        5      470     1137     1138
    2723        5     1088     1137     1138
    2724        7      439     1138     1117
    2725        6      439     1138     1137
    2726        6     1117     1138     1137
    2727        3     1091     1139     1121
    2728        5     1091     1139     1140
    2729        5     1121     1139     1140
    2730        7     1090     1140     1120
    2731        6     1090     1140     1139
    2732        6     1120     1140     1139
    2733        3      464     1141     1094
    2734        5      464     1141     1142
    2735        5     1094     1141     1142
    2736        7      445     1142     1111
    2737        6      445     1142     1141
    2738        6     1111     1142     1141
    2739        3     1097     1143     1115
    2740        5     1097     1143     1144
    2741        5     1115     1143     1144
    2742        7     1096     1144     1114
    2743        6     1096     1144     1143
    2744        6     1114     1144     1143
    2745        3      452     1145     1106
    2746        5      452     1145     1146
    2747        5     1106     1145     1146
    2748        7      457     1146     1099
    2749        6      457     1146     1145
    2750        6     1099     1146     1145
    2751        3     1103     1147     1109
    2752        5     1103     1147     1148
    2753        5     1109     1147     1148
    2754        7     1102     1148     1108
    2755        6     1102     1148     1147
    2756        6     1108     1148     1147
    2757        8     1081     1149     1096
    2758        8     1081     1149     1108
    2759        8     1081     1149     1117
    2760        8     1081     1149     1129
    2761        8     1081     1149     1132
    2762        8     1096     1149     1108
    2763        8     1096     1149     1117
    2764        8     1096     1149     1129
    2765        8     1096     1149     1132
    2766        8     1108     1149     1117
    2767        8     1108     1149     1129
    2768        8     1108     1149     1132
    2769        8     1117     1149     1129
    2770        8     1117     1149     1132
    2771        8     1129     1149     1132
    2772        8     1087     1150     1102
    2773        8     1087     1150     1114
    2774        8     1087     1150     1123
    2775        8     1087     1150     1132
    2776        8     1087     1150     1777
    2777        8     1102     1150     1114
    2778        8     1102     1150     1123
    2779        8     1102     1150     1132
    2780        8     1102     1150     1777
    2781        8     1114     1150     1123
    2782        8     1114     1150     1132
    2783        8     1114     1150     1777
    2784        8     1123     1150     1132
    2785        8     1123     1150     1777
    2786        8     1132     1150     1777
    2787        8     1084     1151     1093
    2788        8     1084     1151     1105
    2789        8     1084     1151     1120
    2790        8     1084     1151     1130
    2791        8     1084     1151     1779
    2792        8     1093     1151     1105
    2793        8     1093     1151     1120
    2794        8     1093     1151     1130
    2795        8     1093     1151     1779
    2796        8     1105     1151     1120
    2797        8     1105     1151     1130
    2798        8     1105     1151     1779
    2799        8     1120     1151     1130
    2800        8     1120     1151     1779
    2801        8     1130     1151     1779
    2802        8     1090     1152     1099
    2803        8     1090     1152     1111
    2804        8     1090     1152     1126
    2805        8     1090     1152     1130
    2806        8     1090     1152     1131
    2807        8     1099     1152     1111
    2808        8     1099     1152     1126
    2809        8     1099     1152     1130
    2810        8     1099     1152     1131
    2811        8     1111     1152     1126
    2812        8     1111     1152     1130
    2813        8     1111     1152     1131
    2814        8     1126     1152     1130
    2815        8     1126     1152     1131
    2816        8     1130     1152     1131
    2817        1     1206     1153     1221
    2818        2      668     1154     1197
    2819        3      668     1154     1853
    2820        2     1197     1154     1853
    2821        1     1208     1156     1223
    2822        2     1175     1157     1200
    2823        3     1175     1157     1207
    2824        2     1200     1157     1207
    2825        1     1222     1159     1858
    2826        2      734     1160     1191
    2827        3      734     1160     1209
    2828        2     1191     1160     1209
    2829        1     1212     1162     1224
    2830        2     1194     1163     1211
    2831        2     1194     1163     1241
    2832        3     1211     1163     1241
    2833        1     1223     1165     1862
    2834        2      944     1166     1185
    2835        3      944     1166     1213
    2836        2     1185     1166     1213
    2837        1     1216     1168     1221
    2838        2     1091     1169     1188
    2839        3     1091     1169     1215
    2840        2     1188     1169     1215
    2841        1     1218     1171     1224
    2842        2     1010     1172     1179
    2843        3     1010     1172     1865
    2844        2     1179     1172     1865
    2845        1     1220     1174     1222
    2846        2     1157     1175     1182
    2847        3     1157     1175     1219
    2848        2     1182     1175     1219
    2849        1     1223     1177     1866
    2850        2     1052     1178     1173
    2851        3     1052     1178     1217
    2852        2     1173     1178     1217
    2853        1     1220     1180     1221
    2854        2     1176     1181     1199
    2855        2     1176     1181     1219
    2856        3     1199     1181     1219
    2857        1     1214     1183     1224
    2858        2      974     1184     1167
    2859        3      974     1184     1861
    2860        2     1167     1184     1861
    2861        1     1216     1186     1222
    2862        2     1121     1187     1170
    2863        3     1121     1187     1215
    2864        2     1170     1187     1215
    2865        1     1210     1189     1221
    2866        2      752     1190     1161
    2867        3      752     1190     1857
    2868        2     1161     1190     1857
    2869        1     1212     1192     1223
    2870        2     1164     1193     1211
    2871        2     1164     1193     1259
    2872        3     1211     1193     1259
    2873        1     1222     1195     1854
    2874        2      674     1196     1155
    2875        3      674     1196     1205
    2876        2     1155     1196     1205
    2877        1     1208     1198     1224
    2878        2     1158     1199     1181
    2879        2     1158     1199     1207
    2880        3     1181     1199     1207
    2881        4      574     1201     1221
    2882        4     1223     1202     1224
    2883        4      575     1203     1224
    2884        4     1221     1204     1222
    2885        3      506     1205     1196
    2886        5      506     1205     1206
    2887        5     1196     1205     1206
    2888        7      547     1206     1153
    2889        6      547     1206     1205
    2890        6     1153     1206     1205
    2891        3     1157     1207     1199
    2892        5     1157     1207     1208
    2893        5     1199     1207     1208
    2894        7     1156     1208     1198
    2895        6     1156     1208     1207
    2896        6     1198     1208     1207
    2897        3      542     1209     1160
    2898        5      542     1209     1210
    2899        5     1160     1209     1210
    2900        7      511     1210     1189
    2901        6      511     1210     1209
    2902        6     1189     1210     1209
    2903        3     1163     1211     1193
    2904        5     1163     1211     1212
    2905        5     1193     1211     1212
    2906        7     1162     1212     1192
    2907        6     1162     1212     1211
    2908        6     1192     1212     1211
    2909        3      536     1213     1166
    2910        5      536     1213     1214
    2911        5     1166     1213     1214
    2912        7      517     1214     1183
    2913        6      517     1214     1213
    2914        6     1183     1214     1213
    2915        3     1169     1215     1187
    2916        5     1169     1215     1216
    2917        5     1187     1215     1216
    2918        7     1168     1216     1186
    2919        6     1168     1216     1215
    2920        6     1186     1216     1215
    2921        3      524     1217     1178
    2922        5      524     1217     1218
    2923        5     1178     1217     1218
    2924        7      529     1218     1171
    2925        6      529     1218     1217
    2926        6     1171     1218     1217
    2927        3     1175     1219     1181
    2928        5     1175     1219     1220
    2929        5     1181     1219     1220
    2930        7     1174     1220     1180
    2931        6     1174     1220     1219
    2932        6     1180     1220     1219
    2933        8     1153     1221     1168
    2934        8     1153     1221     1180
    2935        8     1153     1221     1189
    2936        8     1153     1221     1201
    2937        8     1153     1221     1204
    2938        8     1168     1221     1180
    2939        8     1168     1221     1189
    2940        8     1168     1221     1201
    2941        8     1168     1221     1204
    2942        8     1180     1221     1189
    2943        8     1180     1221     1201
    2944        8     1180     1221     1204
    2945        8     1189     1221     1201
    2946        8     1189     1221     1204
    2947        8     1201     1221     1204
    2948        8     1159     1222     1174
    2949        8     1159     1222     1186
    2950        8     1159     1222     1195
    2951        8     1159     1222     1204
    2952        8     1159     1222     1849
    2953        8     1174     1222     1186
    2954        8     1174     1222     1195
    2955        8     1174     1222     1204
    2956        8     1174     1222     1849
    2957        8     1186     1222     1195
    2958        8     1186     1222     1204
    2959        8     1186     1222     1849
    2960        8     1195     1222     1204
    2961        8     1195     1222     1849
    2962        8     1204     1222     1849
    2963        8     1156     1223     1165
    2964        8     1156     1223     1177
    2965        8     1156     1223     1192
    2966        8     1156     1223     1202
    2967        8     1156     1223     1851
    2968        8     1165     1223     1177
    2969        8     1165     1223     1192
    2970        8     1165     1223     1202
    2971        8     1165     1223     1851
    2972        8     1177     1223     1192
    2973        8     1177     1223     1202
    2974        8     1177     1223     1851
    2975        8     1192     1223     1202
    2976        8     1192     1223     1851
    2977        8     1202     1223     1851
    2978        8     1162     1224     1171
    2979        8     1162     1224     1183
    2980        8     1162     1224     1198
    2981        8     1162     1224     1202
    2982        8     1162     1224     1203
    2983        8     1171     1224     1183
    2984        8     1171     1224     1198
    2985        8     1171     1224     1202
    2986        8     1171     1224     1203
    2987        8     1183     1224     1198
    2988        8     1183     1224     1202
    2989        8     1183     1224     1203
    2990        8     1198     1224     1202
    2991        8     1198     1224     1203
    2992        8     1202     1224     1203
    2993        1     1278     1225     1293
    2994        2      740     1226     1269
    2995        3      740     1226     1925
    2996        2     1269     1226     1925
    2997        1     1280     1228     1295
    2998        2     1247     1229     1272
    2999        3     1247     1229     1279
    3000        2     1272     1229     1279
    3001        1     1294     1231     1930
    3002        2      806     1232     1263
    3003        3      806     1232     1281
    3004        2     1263     1232     1281
    3005        1     1284     1234     1296
    3006        2     1097     1235     1266
    3007        3     1097     1235     1283
    3008        2     1266     1235     1283
    3009        1     1295     1237     1934
    3010        2     1016     1238     1257
    3011        3     1016     1238     1285
    3012        2     1257     1238     1285
    3013        1     1288     1240     1293
    3014        2     1163     1241     1260
    3015        3     1163     1241     1287
    3016        2     1260     1241     1287
    3017        1     1290     1243     1296
    3018        2      866     1244     1251
    3019        3      866     1244     1937
    3020        2     1251     1244     1937
    3021        1     1292     1246     1294
    3022        2     1229     1247     1254
    3023        3     1229     1247     1291
    3024        2     1254     1247     1291
    3025        1     1295     1249     1938
    3026        2      908     1250     1245
    3027        3      908     1250     1289
    3028        2     1245     1250     1289
    3029        1     1292     1252     1293
    3030        2     1248     1253     1271
    3031        2     1248     1253     1291
    3032        3     1271     1253     1291
    3033        1     1286     1255     1296
    3034        2     1046     1256     1239
    3035        3     1046     1256     1933
    3036        2     1239     1256     1933
    3037        1     1288     1258     1294
    3038        2     1193     1259     1242
    3039        3     1193     1259     1287
    3040        2     1242     1259     1287
    3041        1     1282     1261     1293
    3042        2      824     1262     1233
    3043        3      824     1262     1929
    3044        2     1233     1262     1929
    3045        1     1284     1264     1295
    3046        2     1115     1265     1236
    3047        3     1115     1265     1283
    3048        2     1236     1265     1283
    3049        1     1294     1267     1926
    3050        2      746     1268     1227
    3051        3      746     1268     1277
    3052        2     1227     1268     1277
    3053        1     1280     1270     1296
    3054        2     1230     1271     1253
    3055        2     1230     1271     1279
    3056        3     1253     1271     1279
    3057        4      646     1273     1293
    3058        4     1295     1274     1296
    3059        4      647     1275     1296
    3060        4     1293     1276     1294
    3061        3      578     1277     1268
    3062        5      578     1277     1278
    3063        5     1268     1277     1278
    3064        7      619     1278     1225
    3065        6      619     1278     1277
    3066        6     1225     1278     1277
    3067        3     1229     1279     1271
    3068        5     1229     1279     1280
    3069        5     1271     1279     1280
    3070        7     1228     1280     1270
    3071        6     1228     1280     1279
    3072        6     1270     1280     1279
    3073        3      614     1281     1232
    3074        5      614     1281     1282
    3075        5     1232     1281     1282
    3076        7      583     1282     1261
    3077        6      583     1282     1281
    3078        6     1261     1282     1281
    3079        3     1235     1283     1265
    3080        5     1235     1283     1284
    3081        5     1265     1283     1284
    3082        7     1234     1284     1264
    3083        6     1234     1284     1283
    3084        6     1264     1284     1283
    3085        3      608     1285     1238
    3086        5      608     1285     1286
    3087        5     1238     1285     1286
    3088        7      589     1286     1255
    3089        6      589     1286     1285
    3090        6     1255     1286     1285
    3091        3     1241     1287     1259
    3092        5     1241     1287     1288
    3093        5     1259     1287     1288
    3094        7     1240     1288     1258
    3095        6     1240     1288     1287
    3096        6     1258     1288     1287
    3097        3      596     1289     1250
    3098        5      596     1289     1290
    3099        5     1250     1289     1290
    3100        7      601     1290     1243
    3101        6      601     1290     1289
    3102        6     1243     1290     1289
    3103        3     1247     1291     1253
    3104        5     1247     1291     1292
    3105        5     1253     1291     1292
    3106        7     1246     1292     1252
    3107        6     1246     1292     1291
    3108        6     1252     1292     1291
    3109        8     1225     1293     1240
    3110        8     1225     1293     1252
    3111        8     1225     1293     1261
    3112        8     1225     1293     1273
    3113        8     1225     1293     1276
    3114        8     1240     1293     1252
    3115        8     1240     1293     1261
    3116        8     1240     1293     1273
    3117        8     1240     1293     1276
    3118        8     1252     1293     1261
    3119        8     1252     1293     1273
    3120        8     1252     1293     1276
    3121        8     1261     1293     1273
    3122        8     1261     1293     1276
    3123        8     1273     1293     1276
    3124        8     1231     1294     1246
    3125        8     1231     1294     1258
    3126        8     1231     1294     1267
    3127        8     1231     1294     1276
    3128        8     1231     1294     1921
    3129        8     1246     1294     1258
    3130        8     1246     1294     1267
    3131        8     1246     1294     1276
    3132        8     1246     1294     1921
    3133        8     1258     1294     1267
    3134        8     1258     1294     1276
    3135        8     1258     1294     1921
    3136        8     1267     1294     1276
    3137        8     1267     1294     1921
    3138        8     1276     1294     1921
    3139        8     1228     1295     1237
    3140        8     1228     1295     1249
    3141        8     1228     1295     1264
    3142        8     1228     1295     1274
    3143        8     1228     1295     1923
    3144        8     1237     1295     1249
    3145        8     1237     1295     1264
    3146        8     1237     1295     1274
    3147        8     1237     1295     1923
    3148        8     1249     1295     1264
    3149        8     1249     1295     1274
    3150        8     1249     1295     1923
    3151        8     1264     1295     1274
    3152        8     1264     1295     1923
    3153        8     1274     1295     1923
    3154        8     1234     1296     1243
    3155        8     1234     1296     1255
    3156        8     1234     1296     1270
    3157        8     1234     1296     1274
    3158        8     1234     1296     1275
    3159        8     1243     1296     1255
    3160        8     1243     1296     1270
    3161        8     1243     1296     1274
    3162        8     1243     1296     1275
    3163        8     1255     1296     1270
    3164        8     1255     1296     1274
    3165        8     1255     1296     1275
    3166        8     1270     1296     1274
    3167        8     1270     1296     1275
    3168        8     1274     1296     1275
    3169        1     1350     1297     1365
    3170        2       53     1298     1341
    3171        3       53     1298     1676
    3172        2     1341     1298     1676
    3173        1     1352     1300     1367
    3174        2     1319     1301     1344
    3175        3     1319     1301     1351
    3176        2     1344     1301     1351
    3177        1       58     1303     1366
    3178        2     1335     1304     1353
    3179        2     1335     1304     1526
    3180        3     1353     1304     1526
    3181        1     1356     1306     1368
    3182        2     1338     1307     1355
    3183        2     1338     1307     1385
    3184        3     1355     1307     1385
    3185        1       62     1309     1367
    3186        2     1329     1310     1357
    3187        2     1329     1310     1736
    3188        3     1357     1310     1736
    3189        1     1360     1312     1365
    3190        2     1332     1313     1359
    3191        2     1332     1313     1451
    3192        3     1359     1313     1451
    3193        1     1362     1315     1368
    3194        2       65     1316     1323
    3195        3       65     1316     1802
    3196        2     1323     1316     1802
    3197        1     1364     1318     1366
    3198        2     1301     1319     1326
    3199        3     1301     1319     1363
    3200        2     1326     1319     1363
    3201        1       66     1321     1367
    3202        2     1317     1322     1361
    3203        2     1317     1322     1844
    3204        3     1361     1322     1844
    3205        1     1364     1324     1365
    3206        2     1320     1325     1343
    3207        2     1320     1325     1363
    3208        3     1343     1325     1363
    3209        1     1358     1327     1368
    3210        2       61     1328     1311
    3211        3       61     1328     1766
    3212        2     1311     1328     1766
    3213        1     1360     1330     1366
    3214        2     1314     1331     1359
    3215        2     1314     1331     1481
    3216        3     1359     1331     1481
    3217        1     1354     1333     1365
    3218        2       57     1334     1305
    3219        3       57     1334     1544
    3220        2     1305     1334     1544
    3221        1     1356     1336     1367
    3222        2     1308     1337     1355
    3223        2     1308     1337     1403
    3224        3     1355     1337     1403
    3225        1       54     1339     1366
    3226        2     1299     1340     1349
    3227        2     1299     1340     1682
    3228        3     1349     1340     1682
    3229        1     1352     1342     1368
    3230        2     1302     1343     1325
    3231        2     1302     1343     1351
    3232        3     1325     1343     1351
    3233        4      718     1345     1365
    3234        4     1367     1346     1368
    3235        4      719     1347     1368
    3236        4     1365     1348     1366
    3237        3      650     1349     1340
    3238        5      650     1349     1350
    3239        5     1340     1349     1350
    3240        7      691     1350     1297
    3241        6      691     1350     1349
    3242        6     1297     1350     1349
    3243        3     1301     1351     1343
    3244        5     1301     1351     1352
    3245        5     1343     1351     1352
    3246        7     1300     1352     1342
    3247        6     1300     1352     1351
    3248        6     1342     1352     1351
    3249        3      686     1353     1304
    3250        5      686     1353     1354
    3251        5     1304     1353     1354
    3252        7      655     1354     1333
    3253        6      655     1354     1353
    3254        6     1333     1354     1353
    3255        3     1307     1355     1337
    3256        5     1307     1355     1356
    3257        5     1337     1355     1356
    3258        7     1306     1356     1336
    3259        6     1306     1356     1355
    3260        6     1336     1356     1355
    3261        3      680     1357     1310
    3262        5      680     1357     1358
    3263        5     1310     1357     1358
    3264        7      661     1358     1327
    3265        6      661     1358     1357
    3266        6     1327     1358     1357
    3267        3     1313     1359     1331
    3268        5     1313     1359     1360
    3269        5     1331     1359     1360
    3270        7     1312     1360     1330
    3271        6     1312     1360     1359
    3272        6     1330     1360     1359
    3273        3      668     1361     1322
    3274        5      668     1361     1362
    3275        5     1322     1361     1362
    3276        7      673     1362     1315
    3277        6      673     1362     1361
    3278        6     1315     1362     1361
    3279        3     1319     1363     1325
    3280        5     1319     1363     1364
    3281        5     1325     1363     1364
    3282        7     1318     1364     1324
    3283        6     1318     1364     1363
    3284        6     1324     1364     1363
    3285        8     1297     1365     1312
    3286        8     1297     1365     1324
    3287        8     1297     1365     1333
    3288        8     1297     1365     1345
    3289        8     1297     1365     1348
    3290        8     1312     1365     1324
    3291        8     1312     1365     1333
    3292        8     1312     1365     1345
    3293        8     1312     1365     1348
    3294        8     1324     1365     1333
    3295        8     1324     1365     1345
    3296        8     1324     1365     1348
    3297        8     1333     1365     1345
    3298        8     1333     1365     1348
    3299        8     1345     1365     1348
    3300        8       49     1366     1303
    3301        8       49     1366     1318
    3302        8       49     1366     1330
    3303        8       49     1366     1339
    3304        8       49     1366     1348
    3305        8     1303     1366     1318
    3306        8     1303     1366     1330
    3307        8     1303     1366     1339
    3308        8     1303     1366     1348
    3309        8     1318     1366     1330
    3310        8     1318     1366     1339
    3311        8     1318     1366     1348
    3312        8     1330     1366     1339
    3313        8     1330     1366     1348
    3314        8     1339     1366     1348
    3315        8       51     1367     1300
    3316        8       51     1367     1309
    3317        8       51     1367     1321
    3318        8       51     1367     1336
    3319        8       51     1367     1346
    3320        8     1300     1367     1309
    3321        8     1300     1367     1321
    3322        8     1300     1367     1336
    3323        8     1300     1367     1346
    3324        8     1309     1367     1321
    3325        8     1309     1367     1336
    3326        8     1309     1367     1346
    3327        8     1321     1367     1336
    3328        8     1321     1367     1346
    3329        8     1336     1367     1346
    3330        8     1306     1368     1315
    3331        8     1306     1368     1327
    3332        8     1306     1368     1342
    3333        8     1306     1368     1346
    3334        8     1306     1368     1347
    3335        8     1315     1368     1327
    3336        8     1315     1368     1342
    3337        8     1315     1368     1346
    3338        8     1315     1368     1347
    3339        8     1327     1368     1342
    3340        8     1327     1368     1346
    3341        8     1327     1368     1347
    3342        8     1342     1368     1346
    3343        8     1342     1368     1347
    3344        8     1346     1368     1347
    3345        1     1422     1369     1437
    3346        2      125     1370     1413
    3347        3      125     1370     1532
    3348        2     1413     1370     1532
    3349        1     1424     1372     1439
    3350        2     1391     1373     1416
    3351        3     1391     1373     1423
    3352        2     1416     1373     1423
    3353        1      130     1375     1438
    3354        2     1407     1376     1425
    3355        2     1407     1376     1598
    3356        3     1425     1376     1598
    3357        1     1428     1378     1440
    3358        2     1410     1379     1427
    3359        2     1410     1379     1457
    3360        3     1427     1379     1457
    3361        1      134     1381     1439
    3362        2     1401     1382     1429
    3363        2     1401     1382     1808
    3364        3     1429     1382     1808
    3365        1     1432     1384     1437
    3366        2     1307     1385     1404
    3367        3     1307     1385     1431
    3368        2     1404     1385     1431
    3369        1     1434     1387     1440
    3370        2      137     1388     1395
    3371        3      137     1388     1874
    3372        2     1395     1388     1874
    3373        1     1436     1390     1438
    3374        2     1373     1391     1398
    3375        3     1373     1391     1435
    3376        2     1398     1391     1435
    3377        1      138     1393     1439
    3378        2     1389     1394     1433
    3379        2     1389     1394     1916
    3380        3     1433     1394     1916
    3381        1     1436     1396     1437
    3382        2     1392     1397     1415
    3383        2     1392     1397     1435
    3384        3     1415     1397     1435
    3385        1     1430     1399     1440
    3386        2      133     1400     1383
    3387        3      133     1400     1838
    3388        2     1383     1400     1838
    3389        1     1432     1402     1438
    3390        2     1337     1403     1386
    3391        3     1337     1403     1431
    3392        2     1386     1403     1431
    3393        1     1426     1405     1437
    3394        2      129     1406     1377
    3395        3      129     1406     1616
    3396        2     1377     1406     1616
    3397        1     1428     1408     1439
    3398        2     1380     1409     1427
    3399        2     1380     1409     1475
    3400        3     1427     1409     1475
    3401        1      126     1411     1438
    3402        2     1371     1412     1421
    3403        2     1371     1412     1538
    3404        3     1421     1412     1538
    3405        1     1424     1414     1440
    3406        2     1374     1415     1397
    3407        2     1374     1415     1423
    3408        3     1397     1415     1423
    3409        4      790     1417     1437
    3410        4     1439     1418     1440
    3411        4      791     1419     1440
    3412        4     1437     1420     1438
    3413        3      722     1421     1412
    3414        5      722     1421     1422
    3415        5     1412     1421     1422
    3416        7      763     1422     1369
    3417        6      763     1422     1421
    3418        6     1369     1422     1421
    3419        3     1373     1423     1415
    3420        5     1373     1423     1424
    3421        5     1415     1423     1424
    3422        7     1372     1424     1414
    3423        6     1372     1424     1423
    3424        6     1414     1424     1423
    3425        3      758     1425     1376
    3426        5      758     1425     1426
    3427        5     1376     1425     1426
    3428        7      727     1426     1405
    3429        6      727     1426     1425
    3430        6     1405     1426     1425
    3431        3     1379     1427     1409
    3432        5     1379     1427     1428
    3433        5     1409     1427     1428
    3434        7     1378     1428     1408
    3435        6     1378     1428     1427
    3436        6     1408     1428     1427
    3437        3      752     1429     1382
    3438        5      752     1429     1430
    3439        5     1382     1429     1430
    3440        7      733     1430     1399
    3441        6      733     1430     1429
    3442        6     1399     1430     1429
    3443        3     1385     1431     1403
    3444        5     1385     1431     1432
    3445        5     1403     1431     1432
    3446        7     1384     1432     1402
    3447        6     1384     1432     1431
    3448        6     1402     1432     1431
    3449        3      740     1433     1394
    3450        5      740     1433     1434
    3451        5     1394     1433     1434
    3452        7      745     1434     1387
    3453        6      745     1434     1433
    3454        6     1387     1434     1433
    3455        3     1391     1435     1397
    3456        5     1391     1435     1436
    3457        5     1397     1435     1436
    3458        7     1390     1436     1396
    3459        6     1390     1436     1435
    3460        6     1396     1436     1435
    3461        8     1369     1437     1384
    3462        8     1369     1437     1396
    3463        8     1369     1437     1405
    3464        8     1369     1437     1417
    3465        8     1369     1437     1420
    3466        8     1384     1437     1396
    3467        8     1384     1437     1405
    3468        8     1384     1437     1417
    3469        8     1384     1437     1420
    3470        8     1396     1437     1405
    3471        8     1396     1437     1417
    3472        8     1396     1437     1420
    3473        8     1405     1437     1417
    3474        8     1405     1437     1420
    3475        8     1417     1437     1420
    3476        8      121     1438     1375
    3477        8      121     1438     1390
    3478        8      121     1438     1402
    3479        8      121     1438     1411
    3480        8      121     1438     1420
    3481        8     1375     1438     1390
    3482        8     1375     1438     1402
    3483        8     1375     1438     1411
    3484        8     1375     1438     1420
    3485        8     1390     1438     1402
    3486        8     1390     1438     1411
    3487        8     1390     1438     1420
    3488        8     1402     1438     1411
    3489        8     1402     1438     1420
    3490        8     1411     1438     1420
    3491        8      123     1439     1372
    3492        8      123     1439     1381
    3493        8      123     1439     1393
    3494        8      123     1439     1408
    3495        8      123     1439     1418
    3496        8     1372     1439     1381
    3497        8     1372     1439     1393
    3498        8     1372     1439     1408
    3499        8     1372     1439     1418
    3500        8     1381     1439     1393
    3501        8     1381     1439     1408
    3502        8     1381     1439     1418
    3503        8     1393     1439     1408
    3504        8     1393     1439     1418
    3505        8     1408     1439     1418
    3506        8     1378     1440     1387
    3507        8     1378     1440     1399
    3508        8     1378     1440     1414
    3509        8     1378     1440     1418
    3510        8     1378     1440     1419
    3511        8     1387     1440     1399
    3512        8     1387     1440     1414
    3513        8     1387     1440     1418
    3514        8     1387     1440     1419
    3515        8     1399     1440     1414
    3516        8     1399     1440     1418
    3517        8     1399     1440     1419
    3518        8     1414     1440     1418
    3519        8     1414     1440     1419
    3520        8     1418     1440     1419
    3521        1     1494     1441     1509
    3522        2      197     1442     1485
    3523        3      197     1442     1604
    3524        2     1485     1442     1604
    3525        1     1496     1444     1511
    3526        2     1463     1445     1488
    3527        3     1463     1445     1495
    3528        2     1488     1445     1495
    3529        1      202     1447     1510
    3530        2     1479     1448     1497
    3531        2     1479     1448     1670
    3532        3     1497     1448     1670
    3533        1     1500     1450     1512
    3534        2     1313     1451     1482
    3535        3     1313     1451     1499
    3536        2     1482     1451     1499
    3537        1      206     1453     1511
    3538        2     1473     1454     1501
    3539        2     1473     1454     1880
    3540        3     1501     1454     1880
    3541        1     1504     1456     1509
    3542        2     1379     1457     1476
    3543        3     1379     1457     1503
    3544        2     1476     1457     1503
    3545        1     1506     1459     1512
    3546        2      209     1460     1467
    3547        3      209     1460     1730
    3548        2     1467     1460     1730
    3549        1     1508     1462     1510
    3550        2     1445     1463     1470
    3551        3     1445     1463     1507
    3552        2     1470     1463     1507
    3553        1      210     1465     1511
    3554        2     1461     1466     1505
    3555        2     1461     1466     1772
    3556        3     1505     1466     1772
    3557        1     1508     1468     1509
    3558        2     1464     1469     1487
    3559        2     1464     1469     1507
    3560        3     1487     1469     1507
    3561        1     1502     1471     1512
    3562        2      205     1472     1455
    3563        3      205     1472     1910
    3564        2     1455     1472     1910
    3565        1     1504     1474     1510
    3566        2     1409     1475     1458
    3567        3     1409     1475     1503
    3568        2     1458     1475     1503
    3569        1     1498     1477     1509
    3570        2      201     1478     1449
    3571        3      201     1478     1688
    3572        2     1449     1478     1688
    3573        1     1500     1480     1511
    3574        2     1331     1481     1452
    3575        3     1331     1481     1499
    3576        2     1452     1481     1499
    3577        1      198     1483     1510
    3578        2     1443     1484     1493
    3579        2     1443     1484     1610
    3580        3     1493     1484     1610
    3581        1     1496     1486     1512
    3582        2     1446     1487     1469
    3583        2     1446     1487     1495
    3584        3     1469     1487     1495
    3585        4      862     1489     1509
    3586        4     1511     1490     1512
    3587        4      863     1491     1512
    3588        4     1509     1492     1510
    3589        3      794     1493     1484
    3590        5      794     1493     1494
    3591        5     1484     1493     1494
    3592        7      835     1494     1441
    3593        6      835     1494     1493
    3594        6     1441     1494     1493
    3595        3     1445     1495     1487
    3596        5     1445     1495     1496
    3597        5     1487     1495     1496
    3598        7     1444     1496     1486
    3599        6     1444     1496     1495
    3600        6     1486     1496     1495
    3601        3      830     1497     1448
    3602        5      830     1497     1498
    3603        5     1448     1497     1498
    3604        7      799     1498     1477
    3605        6      799     1498     1497
    3606        6     1477     1498     1497
    3607        3     1451     1499     1481
    3608        5     1451     1499     1500
    3609        5     1481     1499     1500
    3610        7     1450     1500     1480
    3611        6     1450     1500     1499
    3612        6     1480     1500     1499
    3613        3      824     1501     1454
    3614        5      824     1501     1502
    3615        5     1454     1501     1502
    3616        7      805     1502     1471
    3617        6      805     1502     1501
    3618        6     1471     1502     1501
    3619        3     1457     1503     1475
    3620        5     1457     1503     1504
    3621        5     1475     1503     1504
    3622        7     1456     1504     1474
    3623        6     1456     1504     1503
    3624        6     1474     1504     1503
    3625        3      812     1505     1466
    3626        5      812     1505     1506
    3627        5     1466     1505     1506
    3628        7      817     1506     1459
    3629        6      817     1506     1505
    3630        6     1459     1506     1505
    3631        3     1463     1507     1469
    3632        5     1463     1507     1508
    3633        5     1469     1507     1508
    3634        7     1462     1508     1468
    3635        6     1462     1508     1507
    3636        6     1468     1508     1507
    3637        8     1441     1509     1456
    3638        8     1441     1509     1468
    3639        8     1441     1509     1477
    3640        8     1441     1509     1489
    3641        8     1441     1509     1492
    3642        8     1456     1509     1468
    3643        8     1456     1509     1477
    3644        8     1456     1509     1489
    3645        8     1456     1509     1492
    3646        8     1468     1509     1477
    3647        8     1468     1509     1489
    3648        8     1468     1509     1492
    3649        8     1477     1509     1489
    3650        8     1477     1509     1492
    3651        8     1489     1509     1492
    3652        8      193     1510     1447
    3653        8      193     1510     1462
    3654        8      193     1510     1474
    3655        8      193     1510     1483
    3656        8      193     1510     1492
    3657        8     1447     1510     1462
    3658        8     1447     1510     1474
    3659        8     1447     1510     1483
    3660        8     1447     1510     1492
    3661        8     1462     1510     1474
    3662        8     1462     1510     1483
    3663        8     1462     1510     1492
    3664        8     1474     1510     1483
    3665        8     1474     1510     1492
    3666        8     1483     1510     1492
    3667        8      195     1511     1444
    3668        8      195     1511     1453
    3669        8      195     1511     1465
    3670        8      195     1511     1480
    3671        8      195     1511     1490
    3672        8     1444     1511     1453
    3673        8     1444     1511     1465
    3674        8     1444     1511     1480
    3675        8     1444     1511     1490
    3676        8     1453     1511     1465
    3677        8     1453     1511     1480
    3678        8     1453     1511     1490
    3679        8     1465     1511     1480
    3680        8     1465     1511     1490
    3681        8     1480     1511     1490
    3682        8     1450     1512     1459
    3683        8     1450     1512     1471
    3684        8     1450     1512     1486
    3685        8     1450     1512     1490
    3686        8     1450     1512     1491
    3687        8     1459     1512     1471
    3688        8     1459     1512     1486
    3689        8     1459     1512     1490
    3690        8     1459     1512     1491
    3691        8     1471     1512     1486
    3692        8     1471     1512     1490
    3693        8     1471     1512     1491
    3694        8     1486     1512     1490
    3695        8     1486     1512     1491
    3696        8     1490     1512     1491
    3697        1     1566     1513     1581
    3698        2      269     1514     1557
    3699        3      269     1514     1892
    3700        2     1557     1514     1892
    3701        1     1568     1516     1583
    3702        2     1535     1517     1560
    3703        3     1535     1517     1567
    3704        2     1560     1517     1567
    3705        1      274     1519     1582
    3706        2     1551     1520     1569
    3707        2     1551     1520     1742
    3708        3     1569     1520     1742
    3709        1     1572     1522     1584
    3710        2     1554     1523     1571
    3711        2     1554     1523     1601
    3712        3     1571     1523     1601
    3713        1      278     1525     1583
    3714        2     1304     1526     1545
    3715        3     1304     1526     1573
    3716        2     1545     1526     1573
    3717        1     1576     1528     1581
    3718        2     1548     1529     1575
    3719        2     1548     1529     1667
    3720        3     1575     1529     1667
    3721        1     1578     1531     1584
    3722        3      281     1532     1370
    3723        2      281     1532     1539
    3724        2     1370     1532     1539
    3725        1     1580     1534     1582
    3726        2     1517     1535     1542
    3727        3     1517     1535     1579
    3728        2     1542     1535     1579
    3729        1      282     1537     1583
    3730        2     1412     1538     1533
    3731        3     1412     1538     1577
    3732        2     1533     1538     1577
    3733        1     1580     1540     1581
    3734        2     1536     1541     1559
    3735        2     1536     1541     1579
    3736        3     1559     1541     1579
    3737        1     1574     1543     1584
    3738        3      277     1544     1334
    3739        2      277     1544     1527
    3740        2     1334     1544     1527
    3741        1     1576     1546     1582
    3742        2     1530     1547     1575
    3743        2     1530     1547     1697
    3744        3     1575     1547     1697
    3745        1     1570     1549     1581
    3746        2      273     1550     1521
    3747        3      273     1550     1760
    3748        2     1521     1550     1760
    3749        1     1572     1552     1583
    3750        2     1524     1553     1571
    3751        2     1524     1553     1619
    3752        3     1571     1553     1619
    3753        1      270     1555     1582
    3754        2     1515     1556     1565
    3755        2     1515     1556     1898
    3756        3     1565     1556     1898
    3757        1     1568     1558     1584
    3758        2     1518     1559     1541
    3759        2     1518     1559     1567
    3760        3     1541     1559     1567
    3761        4      934     1561     1581
    3762        4     1583     1562     1584
    3763        4      935     1563     1584
    3764        4     1581     1564     1582
    3765        3      866     1565     1556
    3766        5      866     1565     1566
    3767        5     1556     1565     1566
    3768        7      907     1566     1513
    3769        6      907     1566     1565
    3770        6     1513     1566     1565
    3771        3     1517     1567     1559
    3772        5     1517     1567     1568
    3773        5     1559     1567     1568
    3774        7     1516     1568     1558
    3775        6     1516     1568     1567
    3776        6     1558     1568     1567
    3777        3      902     1569     1520
    3778        5      902     1569     1570
    3779        5     1520     1569     1570
    3780        7      871     1570     1549
    3781        6      871     1570     1569
    3782        6     1549     1570     1569
    3783        3     1523     1571     1553
    3784        5     1523     1571     1572
    3785        5     1553     1571     1572
    3786        7     1522     1572     1552
    3787        6     1522     1572     1571
    3788        6     1552     1572     1571
    3789        3      896     1573     1526
    3790        5      896     1573     1574
    3791        5     1526     1573     1574
    3792        7      877     1574     1543
    3793        6      877     1574     1573
    3794        6     1543     1574     1573
    3795        3     1529     1575     1547
    3796        5     1529     1575     1576
    3797        5     1547     1575     1576
    3798        7     1528     1576     1546
    3799        6     1528     1576     1575
    3800        6     1546     1576     1575
    3801        3      884     1577     1538
    3802        5      884     1577     1578
    3803        5     1538     1577     1578
    3804        7      889     1578     1531
    3805        6      889     1578     1577
    3806        6     1531     1578     1577
    3807        3     1535     1579     1541
    3808        5     1535     1579     1580
    3809        5     1541     1579     1580
    3810        7     1534     1580     1540
    3811        6     1534     1580     1579
    3812        6     1540     1580     1579
    3813        8     1513     1581     1528
    3814        8     1513     1581     1540
    3815        8     1513     1581     1549
    3816        8     1513     1581     1561
    3817        8     1513     1581     1564
    3818        8     1528     1581     1540
    3819        8     1528     1581     1549
    3820        8     1528     1581     1561
    3821        8     1528     1581     1564
    3822        8     1540     1581     1549
    3823        8     1540     1581     1561
    3824        8     1540     1581     1564
    3825        8     1549     1581     1561
    3826        8     1549     1581     1564
    3827        8     1561     1581     1564
    3828        8      265     1582     1519
    3829        8      265     1582     1534
    3830        8      265     1582     1546
    3831        8      265     1582     1555
    3832        8      265     1582     1564
    3833        8     1519     1582     1534
    3834        8     1519     1582     1546
    3835        8     1519     1582     1555
    3836        8     1519     1582     1564
    3837        8     1534     1582     1546
    3838        8     1534     1582     1555
    3839        8     1534     1582     1564
    3840        8     1546     1582     1555
    3841        8     1546     1582     1564
    3842        8     1555     1582     1564
    3843        8      267     1583     1516
    3844        8      267     1583     1525
    3845        8      267     1583     1537
    3846        8      267     1583     1552
    3847        8      267     1583     1562
    3848        8     1516     1583     1525
    3849        8     1516     1583     1537
    3850        8     1516     1583     1552
    3851        8     1516     1583     1562
    3852        8     1525     1583     1537
    3853        8     1525     1583     1552
    3854        8     1525     1583     1562
    3855        8     1537     1583     1552
    3856        8     1537     1583     1562
    3857        8     1552     1583     1562
    3858        8     1522     1584     1531
    3859        8     1522     1584     1543
    3860        8     1522     1584     1558
    3861        8     1522     1584     1562
    3862        8     1522     1584     1563
    3863        8     1531     1584     1543
    3864        8     1531     1584     1558
    3865        8     1531     1584     1562
    3866        8     1531     1584     1563
    3867        8     1543     1584     1558
    3868        8     1543     1584     1562
    3869        8     1543     1584     1563
    3870        8     1558     1584     1562
    3871        8     1558     1584     1563
    3872        8     1562     1584     1563
    3873        1     1638     1585     1653
    3874        2      341     1586     1629
    3875        3      341     1586     1748
    3876        2     1629     1586     1748
    3877        1     1640     1588     1655
    3878        2     1607     1589     1632
    3879        3     1607     1589     1639
    3880        2     1632     1589     1639
    3881        1      346     1591     1654
    3882        2     1623     1592     1641
    3883        2     1623     1592     1814
    3884        3     1641     1592     1814
    3885        1     1644     1594     1656
    3886        2     1626     1595     1643
    3887        2     1626     1595     1673
    3888        3     1643     1595     1673
    3889        1      350     1597     1655
    3890        2     1376     1598     1617
    3891        3     1376     1598     1645
    3892        2     1617     1598     1645
    3893        1     1648     1600     1653
    3894        2     1523     1601     1620
    3895        3     1523     1601     1647
    3896        2     1620     1601     1647
    3897        1     1650     1603     1656
    3898        3      353     1604     1442
    3899        2      353     1604     1611
    3900        2     1442     1604     1611
    3901        1     1652     1606     1654
    3902        2     1589     1607     1614
    3903        3     1589     1607     1651
    3904        2     1614     1607     1651
    3905        1      354     1609     1655
    3906        2     1484     1610     1605
    3907        3     1484     1610     1649
    3908        2     1605     1610     1649
    3909        1     1652     1612     1653
    3910        2     1608     1613     1631
    3911        2     1608     1613     1651
    3912        3     1631     1613     1651
    3913        1     1646     1615     1656
    3914        3      349     1616     1406
    3915        2      349     1616     1599
    3916        2     1406     1616     1599
    3917        1     1648     1618     1654
    3918        2     1553     1619     1602
    3919        3     1553     1619     1647
    3920        2     1602     1619     1647
    3921        1     1642     1621     1653
    3922        2      345     1622     1593
    3923        3      345     1622     1832
    3924        2     1593     1622     1832
    3925        1     1644     1624     1655
    3926        2     1596     1625     1643
    3927        2     1596     1625     1691
    3928        3     1643     1625     1691
    3929        1      342     1627     1654
    3930        2     1587     1628     1637
    3931        2     1587     1628     1754
    3932        3     1637     1628     1754
    3933        1     1640     1630     1656
    3934        2     1590     1631     1613
    3935        2     1590     1631     1639
    3936        3     1613     1631     1639
    3937        4     1006     1633     1653
    3938        4     1655     1634     1656
    3939        4     1007     1635     1656
    3940        4     1653     1636     1654
    3941        3      938     1637     1628
    3942        5      938     1637     1638
    3943        5     1628     1637     1638
    3944        7      979     1638     1585
    3945        6      979     1638     1637
    3946        6     1585     1638     1637
    3947        3     1589     1639     1631
    3948        5     1589     1639     1640
    3949        5     1631     1639     1640
    3950        7     1588     1640     1630
    3951        6     1588     1640     1639
    3952        6     1630     1640     1639
    3953        3      974     1641     1592
    3954        5      974     1641     1642
    3955        5     1592     1641     1642
    3956        7      943     1642     1621
    3957        6      943     1642     1641
    3958        6     1621     1642     1641
    3959        3     1595     1643     1625
    3960        5     1595     1643     1644
    3961        5     1625     1643     1644
    3962        7     1594     1644     1624
    3963        6     1594     1644     1643
    3964        6     1624     1644     1643
    3965        3      968     1645     1598
    3966        5      968     1645     1646
    3967        5     1598     1645     1646
    3968        7      949     1646     1615
    3969        6      949     1646     1645
    3970        6     1615     1646     1645
    3971        3     1601     1647     1619
    3972        5     1601     1647     1648
    3973        5     1619     1647     1648
    3974        7     1600     1648     1618
    3975        6     1600     1648     1647
    3976        6     1618     1648     1647
    3977        3      956     1649     1610
    3978        5      956     1649     1650
    3979        5     1610     1649     1650
    3980        7      961     1650     1603
    3981        6      961     1650     1649
    3982        6     1603     1650     1649
    3983        3     1607     1651     1613
    3984        5     1607     1651     1652
    3985        5     1613     1651     1652
    3986        7     1606     1652     1612
    3987        6     1606     1652     1651
    3988        6     1612     1652     1651
    3989        8     1585     1653     1600
    3990        8     1585     1653     1612
    3991        8     1585     1653     1621
    3992        8     1585     1653     1633
    3993        8     1585     1653     1636
    3994        8     1600     1653     1612
    3995        8     1600     1653     1621
    3996        8     1600     1653     1633
    3997        8     1600     1653     1636
    3998        8     1612     1653     1621
    3999        8     1612     1653     1633
    4000        8     1612     1653     1636
    4001        8     1621     1653     1633
    4002        8     1621     1653     1636
    4003        8     1633     1653     1636
    4004        8      337     1654     1591
    4005        8      337     1654     1606
    4006        8      337     1654     1618
    4007        8      337     1654     1627
    4008        8      337     1654     1636
    4009        8     1591     1654     1606
    4010        8     1591     1654     1618
    4011        8     1591     1654     1627
    4012        8     1591     1654     1636
    4013        8     1606     1654     1618
    4014        8     1606     1654     1627
    4015        8     1606     1654     1636
    4016        8     1618     1654     1627
    4017        8     1618     1654     1636
    4018        8     1627     1654     1636
    4019        8      339     1655     1588
    4020        8      339     1655     1597
    4021        8      339     1655     1609
    4022        8      339     1655     1624
    4023        8      339     1655     1634
    4024        8     1588     1655     1597
    4025        8     1588     1655     1609
    4026        8     1588     1655     1624
    4027        8     1588     1655     1634
    4028        8     1597     1655     1609
    4029        8     1597     1655     1624
    4030        8     1597     1655     1634
    4031        8     1609     1655     1624
    4032        8     1609     1655     1634
    4033        8     1624     1655     1634
    4034        8     1594     1656     1603
    4035        8     1594     1656     1615
    4036        8     1594     1656     1630
    4037        8     1594     1656     1634
    4038        8     1594     1656     1635
    4039        8     1603     1656     1615
    4040        8     1603     1656     1630
    4041        8     1603     1656     1634
    4042        8     1603     1656     1635
    4043        8     1615     1656     1630
    4044        8     1615     1656     1634
    4045        8     1615     1656     1635
    4046        8     1630     1656     1634
    4047        8     1630     1656     1635
    4048        8     1634     1656     1635
    4049        1     1710     1657     1725
    4050        2      413     1658     1701
    4051        3      413     1658     1820
    4052        2     1701     1658     1820
    4053        1     1712     1660     1727
    4054        2     1679     1661     1704
    4055        3     1679     1661     1711
    4056        2     1704     1661     1711
    4057        1      418     1663     1726
    4058        2     1695     1664     1713
    4059        2     1695     1664     1886
    4060        3     1713     1664     1886
    4061        1     1716     1666     1728
    4062        2     1529     1667     1698
    4063        3     1529     1667     1715
    4064        2     1698     1667     1715
    4065        1      422     1669     1727
    4066        2     1448     1670     1689
    4067        3     1448     1670     1717
    4068        2     1689     1670     1717
    4069        1     1720     1672     1725
    4070        2     1595     1673     1692
    4071        3     1595     1673     1719
    4072        2     1692     1673     1719
    4073        1     1722     1675     1728
    4074        3      425     1676     1298
    4075        2      425     1676     1683
    4076        2     1298     1676     1683
    4077        1     1724     1678     1726
    4078        2     1661     1679     1686
    4079        3     1661     1679     1723
    4080        2     1686     1679     1723
    4081        1      426     1681     1727
    4082        2     1340     1682     1677
    4083        3     1340     1682     1721
    4084        2     1677     1682     1721
    4085        1     1724     1684     1725
    4086        2     1680     1685     1703
    4087        2     1680     1685     1723
    4088        3     1703     1685     1723
    4089        1     1718     1687     1728
    4090        3      421     1688     1478
    4091        2      421     1688     1671
    4092        2     1478     1688     1671
    4093        1     1720     1690     1726
    4094        2     1625     1691     1674
    4095        3     1625     1691     1719
    4096        2     1674     1691     1719
    4097        1     1714     1693     1725
    4098        2      417     1694     1665
    4099        3      417     1694     1904
    4100        2     1665     1694     1904
    4101        1     1716     1696     1727
    4102        2     1547     1697     1668
    4103        3     1547     1697     1715
    4104        2     1668     1697     1715
    4105        1      414     1699     1726
    4106        2     1659     1700     1709
    4107        2     1659     1700     1826
    4108        3     1709     1700     1826
    4109        1     1712     1702     1728
    4110        2     1662     1703     1685
    4111        2     1662     1703     1711
    4112        3     1685     1703     1711
    4113        4     1078     1705     1725
    4114        4     1727     1706     1728
    4115        4     1079     1707     1728
    4116        4     1725     1708     1726
    4117        3     1010     1709     1700
    4118        5     1010     1709     1710
    4119        5     1700     1709     1710
    4120        7     1051     1710     1657
    4121        6     1051     1710     1709
    4122        6     1657     1710     1709
    4123        3     1661     1711     1703
    4124        5     1661     1711     1712
    4125        5     1703     1711     1712
    4126        7     1660     1712     1702
    4127        6     1660     1712     1711
    4128        6     1702     1712     1711
    4129        3     1046     1713     1664
    4130        5     1046     1713     1714
    4131        5     1664     1713     1714
    4132        7     1015     1714     1693
    4133        6     1015     1714     1713
    4134        6     1693     1714     1713
    4135        3     1667     1715     1697
    4136        5     1667     1715     1716
    4137        5     1697     1715     1716
    4138        7     1666     1716     1696
    4139        6     1666     1716     1715
    4140        6     1696     1716     1715
    4141        3     1040     1717     1670
    4142        5     1040     1717     1718
    4143        5     1670     1717     1718
    4144        7     1021     1718     1687
    4145        6     1021     1718     1717
    4146        6     1687     1718     1717
    4147        3     1673     1719     1691
    4148        5     1673     1719     1720
    4149        5     1691     1719     1720
    4150        7     1672     1720     1690
    4151        6     1672     1720     1719
    4152        6     1690     1720     1719
    4153        3     1028     1721     1682
    4154        5     1028     1721     1722
    4155        5     1682     1721     1722
    4156        7     1033     1722     1675
    4157        6     1033     1722     1721
    4158        6     1675     1722     1721
    4159        3     1679     1723     1685
    4160        5     1679     1723     1724
    4161        5     1685     1723     1724
    4162        7     1678     1724     1684
    4163        6     1678     1724     1723
    4164        6     1684     1724     1723
    4165        8     1657     1725     1672
    4166        8     1657     1725     1684
    4167        8     1657     1725     1693
    4168        8     1657     1725     1705
    4169        8     1657     1725     1708
    4170        8     1672     1725     1684
    4171        8     1672     1725     1693
    4172        8     1672     1725     1705
    4173        8     1672     1725     1708
    4174        8     1684     1725     1693
    4175        8     1684     1725     1705
    4176        8     1684     1725     1708
    4177        8     1693     1725     1705
    4178        8     1693     1725     1708
    4179        8     1705     1725     1708
    4180        8      409     1726     1663
    4181        8      409     1726     1678
    4182        8      409     1726     1690
    4183        8      409     1726     1699
    4184        8      409     1726     1708
    4185        8     1663     1726     1678
    4186        8     1663     1726     1690
    4187        8     1663     1726     1699
    4188        8     1663     1726     1708
    4189        8     1678     1726     1690
    4190        8     1678     1726     1699
    4191        8     1678     1726     1708
    4192        8     1690     1726     1699
    4193        8     1690     1726     1708
    4194        8     1699     1726     1708
    4195        8      411     1727     1660
    4196        8      411     1727     1669
    4197        8      411     1727     1681
    4198        8      411     1727     1696
    4199        8      411     1727     1706
    4200        8     1660     1727     1669
    4201        8     1660     1727     1681
    4202        8     1660     1727     1696
    4203        8     1660     1727     1706
    4204        8     1669     1727     1681
    4205        8     1669     1727     1696
    4206        8     1669     1727     1706
    4207        8     1681     1727     1696
    4208        8     1681     1727     1706
    4209        8     1696     1727     1706
    4210        8     1666     1728     1675
    4211        8     1666     1728     1687
    4212        8     1666     1728     1702
    4213        8     1666     1728     1706
    4214        8     1666     1728     1707
    4215        8     1675     1728     1687
    4216        8     1675     1728     1702
    4217        8     1675     1728     1706
    4218        8     1675     1728     1707
    4219        8     1687     1728     1702
    4220        8     1687     1728     1706
    4221        8     1687     1728     1707
    4222        8     1702     1728     1706
    4223        8     1702     1728     1707
    4224        8     1706     1728     1707
    4225        1     1782     1729     1797
    4226        3      485     1730     1460
    4227        2      485     1730     1773
    4228        2     1460     1730     1773
    4229        1     1784     1732     1799
    4230        2     1751     1733     1776
    4231        3     1751     1733     1783
    4232        2     1776     1733     1783
    4233        1      490     1735     1798
    4234        2     1310     1736     1767
    4235        3     1310     1736     1785
    4236        2     1767     1736     1785
    4237        1     1788     1738     1800
    4238        2     1770     1739     1787
    4239        2     1770     1739     1817
    4240        3     1787     1739     1817
    4241        1      494     1741     1799
    4242        2     1520     1742     1761
    4243        3     1520     1742     1789
    4244        2     1761     1742     1789
    4245        1     1792     1744     1797
    4246        2     1764     1745     1791
    4247        2     1764     1745     1883
    4248        3     1791     1745     1883
    4249        1     1794     1747     1800
    4250        3      497     1748     1586
    4251        2      497     1748     1755
    4252        2     1586     1748     1755
    4253        1     1796     1750     1798
    4254        2     1733     1751     1758
    4255        3     1733     1751     1795
    4256        2     1758     1751     1795
    4257        1      498     1753     1799
    4258        2     1628     1754     1749
    4259        3     1628     1754     1793
    4260        2     1749     1754     1793
    4261        1     1796     1756     1797
    4262        2     1752     1757     1775
    4263        2     1752     1757     1795
    4264        3     1775     1757     1795
    4265        1     1790     1759     1800
    4266        3      493     1760     1550
    4267        2      493     1760     1743
    4268        2     1550     1760     1743
    4269        1     1792     1762     1798
    4270        2     1746     1763     1791
    4271        2     1746     1763     1913
    4272        3     1791     1763     1913
    4273        1     1786     1765     1797
    4274        3      489     1766     1328
    4275        2      489     1766     1737
    4276        2     1328     1766     1737
    4277        1     1788     1768     1799
    4278        2     1740     1769     1787
    4279        2     1740     1769     1835
    4280        3     1787     1769     1835
    4281        1      486     1771     1798
    4282        2     1466     1772     1731
    4283        3     1466     1772     1781
    4284        2     1731     1772     1781
    4285        1     1784     1774     1800
    4286        2     1734     1775     1757
    4287        2     1734     1775     1783
    4288        3     1757     1775     1783
    4289        4     1150     1777     1797
    4290        4     1799     1778     1800
    4291        4     1151     1779     1800
    4292        4     1797     1780     1798
    4293        3     1082     1781     1772
    4294        5     1082     1781     1782
    4295        5     1772     1781     1782
    4296        7     1123     1782     1729
    4297        6     1123     1782     1781
    4298        6     1729     1782     1781
    4299        3     1733     1783     1775
    4300        5     1733     1783     1784
    4301        5     1775     1783     1784
    4302        7     1732     1784     1774
    4303        6     1732     1784     1783
    4304        6     1774     1784     1783
    4305        3     1118     1785     1736
    4306        5     1118     1785     1786
    4307        5     1736     1785     1786
    4308        7     1087     1786     1765
    4309        6     1087     1786     1785
    4310        6     1765     1786     1785
    4311        3     1739     1787     1769
    4312        5     1739     1787     1788
    4313        5     1769     1787     1788
    4314        7     1738     1788     1768
    4315        6     1738     1788     1787
    4316        6     1768     1788     1787
    4317        3     1112     1789     1742
    4318        5     1112     1789     1790
    4319        5     1742     1789     1790
    4320        7     1093     1790     1759
    4321        6     1093     1790     1789
    4322        6     1759     1790     1789
    4323        3     1745     1791     1763
    4324        5     1745     1791     1792
    4325        5     1763     1791     1792
    4326        7     1744     1792     1762
    4327        6     1744     1792     1791
    4328        6     1762     1792     1791
    4329        3     1100     1793     1754
    4330        5     1100     1793     1794
    4331        5     1754     1793     1794
    4332        7     1105     1794     1747
    4333        6     1105     1794     1793
    4334        6     1747     1794     1793
    4335        3     1751     1795     1757
    4336        5     1751     1795     1796
    4337        5     1757     1795     1796
    4338        7     1750     1796     1756
    4339        6     1750     1796     1795
    4340        6     1756     1796     1795
    4341        8     1729     1797     1744
    4342        8     1729     1797     1756
    4343        8     1729     1797     1765
    4344        8     1729     1797     1777
    4345        8     1729     1797     1780
    4346        8     1744     1797     1756
    4347        8     1744     1797     1765
    4348        8     1744     1797     1777
    4349        8     1744     1797     1780
    4350        8     1756     1797     1765
    4351        8     1756     1797     1777
    4352        8     1756     1797     1780
    4353        8     1765     1797     1777
    4354        8     1765     1797     1780
    4355        8     1777     1797     1780
    4356        8      481     1798     1735
    4357        8      481     1798     1750
    4358        8      481     1798     1762
    4359        8      481     1798     1771
    4360        8      481     1798     1780
    4361        8     1735     1798     1750
    4362        8     1735     1798     1762
    4363        8     1735     1798     1771
    4364        8     1735     1798     1780
    4365        8     1750     1798     1762
    4366        8     1750     1798     1771
    4367        8     1750     1798     1780
    4368        8     1762     1798     1771
    4369        8     1762     1798     1780
    4370        8     1771     1798     1780
    4371        8      483     1799     1732
    4372        8      483     1799     1741
    4373        8      483     1799     1753
    4374        8      483     1799     1768
    4375        8      483     1799     1778
    4376        8     1732     1799     1741
    4377        8     1732     1799     1753
    4378        8     1732     1799     1768
    4379        8     1732     1799     1778
    4380        8     1741     1799     1753
    4381        8     1741     1799     1768
    4382        8     1741     1799     1778
    4383        8     1753     1799     1768
    4384        8     1753     1799     1778
    4385        8     1768     1799     1778
    4386        8     1738     1800     1747
    4387        8     1738     1800     1759
    4388        8     1738     1800     1774
    4389        8     1738     1800     1778
    4390        8     1738     1800     1779
    4391        8     1747     1800     1759
    4392        8     1747     1800     1774
    4393        8     1747     1800     1778
    4394        8     1747     1800     1779
    4395        8     1759     1800     1774
    4396        8     1759     1800     1778
    4397        8     1759     1800     1779
    4398        8     1774     1800     1778
    4399        8     1774     1800     1779
    4400        8     1778     1800     1779
    4401        1     1854     1801     1869
    4402        3      557     1802     1316
    4403        2      557     1802     1845
    4404        2     1316     1802     1845
    4405        1     1856     1804     1871
    4406        2     1823     1805     1848
    4407        3     1823     1805     1855
    4408        2     1848     1805     1855
    4409        1      562     1807     1870
    4410        2     1382     1808     1839
    4411        3     1382     1808     1857
    4412        2     1839     1808     1857
    4413        1     1860     1810     1872
    4414        2     1842     1811     1859
    4415        2     1842     1811     1889
    4416        3     1859     1811     1889
    4417        1      566     1813     1871
    4418        2     1592     1814     1833
    4419        3     1592     1814     1861
    4420        2     1833     1814     1861
    4421        1     1864     1816     1869
    4422        2     1739     1817     1836
    4423        3     1739     1817     1863
    4424        2     1836     1817     1863
    4425        1     1866     1819     1872
    4426        3      569     1820     1658
    4427        2      569     1820     1827
    4428        2     1658     1820     1827
    4429        1     1868     1822     1870
    4430        2     1805     1823     1830
    4431        3     1805     1823     1867
    4432        2     1830     1823     1867
    4433        1      570     1825     1871
    4434        2     1700     1826     1821
    4435        3     1700     1826     1865
    4436        2     1821     1826     1865
    4437        1     1868     1828     1869
    4438        2     1824     1829     1847
    4439        2     1824     1829     1867
    4440        3     1847     1829     1867
    4441        1     1862     1831     1872
    4442        3      565     1832     1622
    4443        2      565     1832     1815
    4444        2     1622     1832     1815
    4445        1     1864     1834     1870
    4446        2     1769     1835     1818
    4447        3     1769     1835     1863
    4448        2     1818     1835     1863
    4449        1     1858     1837     1869
    4450        3      561     1838     1400
    4451        2      561     1838     1809
    4452        2     1400     1838     1809
    4453        1     1860     1840     1871
    4454        2     1812     1841     1859
    4455        2     1812     1841     1907
    4456        3     1859     1841     1907
    4457        1      558     1843     1870
    4458        2     1322     1844     1803
    4459        3     1322     1844     1853
    4460        2     1803     1844     1853
    4461        1     1856     1846     1872
    4462        2     1806     1847     1829
    4463        2     1806     1847     1855
    4464        3     1829     1847     1855
    4465        4     1222     1849     1869
    4466        4     1871     1850     1872
    4467        4     1223     1851     1872
    4468        4     1869     1852     1870
    4469        3     1154     1853     1844
    4470        5     1154     1853     1854
    4471        5     1844     1853     1854
    4472        7     1195     1854     1801
    4473        6     1195     1854     1853
    4474        6     1801     1854     1853
    4475        3     1805     1855     1847
    4476        5     1805     1855     1856
    4477        5     1847     1855     1856
    4478        7     1804     1856     1846
    4479        6     1804     1856     1855
    4480        6     1846     1856     1855
    4481        3     1190     1857     1808
    4482        5     1190     1857     1858
    4483        5     1808     1857     1858
    4484        7     1159     1858     1837
    4485        6     1159     1858     1857
    4486        6     1837     1858     1857
    4487        3     1811     1859     1841
    4488        5     1811     1859     1860
    4489        5     1841     1859     1860
    4490        7     1810     1860     1840
    4491        6     1810     1860     1859
    4492        6     1840     1860     1859
    4493        3     1184     1861     1814
    4494        5     1184     1861     1862
    4495        5     1814     1861     1862
    4496        7     1165     1862     1831
    4497        6     1165     1862     1861
    4498        6     1831     1862     1861
    4499        3     1817     1863     1835
    4500        5     1817     1863     1864
    4501        5     1835     1863     1864
    4502        7     1816     1864     1834
    4503        6     1816     1864     1863
    4504        6     1834     1864     1863
    4505        3     1172     1865     1826
    4506        5     1172     1865     1866
    4507        5     1826     1865     1866
    4508        7     1177     1866     1819
    4509        6     1177     1866     1865
    4510        6     1819     1866     1865
    4511        3     1823     1867     1829
    4512        5     1823     1867     1868
    4513        5     1829     1867     1868
    4514        7     1822     1868     1828
    4515        6     1822     1868     1867
    4516        6     1828     1868     1867
    4517        8     1801     1869     1816
    4518        8     1801     1869     1828
    4519        8     1801     1869     1837
    4520        8     1801     1869     1849
    4521        8     1801     1869     1852
    4522        8     1816     1869     1828
    4523        8     1816     1869     1837
    4524        8     1816     1869     1849
    4525        8     1816     1869     1852
    4526        8     1828     1869     1837
    4527        8     1828     1869     1849
    4528        8     1828     1869     1852
    4529        8     1837     1869     1849
    4530        8     1837     1869     1852
    4531        8     1849     1869     1852
    4532        8      553     1870     1807
    4533        8      553     1870     1822
    4534        8      553     1870     1834
    4535        8      553     1870     1843
    4536        8      553     1870     1852
    4537        8     1807     1870     1822
    4538        8     1807     1870     1834
    4539        8     1807     1870     1843
    4540        8     1807     1870     1852
    4541        8     1822     1870     1834
    4542        8     1822     1870     1843
    4543        8     1822     1870     1852
    4544        8     1834     1870     1843
    4545        8     1834     1870     1852
    4546        8     1843     1870     1852
    4547        8      555     1871     1804
    4548        8      555     1871     1813
    4549        8      555     1871     1825
    4550        8      555     1871     1840
    4551        8      555     1871     1850
    4552        8     1804     1871     1813
    4553        8     1804     1871     1825
    4554        8     1804     1871     1840
    4555        8     1804     1871     1850
    4556        8     1813     1871     1825
    4557        8     1813     1871     1840
    4558        8     1813     1871     1850
    4559        8     1825     1871     1840
    4560        8     1825     1871     1850
    4561        8     1840     1871     1850
    4562        8     1810     1872     1819
    4563        8     1810     1872     1831
    4564        8     1810     1872     1846
    4565        8     1810     1872     1850
    4566        8     1810     1872     1851
    4567        8     1819     1872     1831
    4568        8     1819     1872     1846
    4569        8     1819     1872     1850
    4570        8     1819     1872     1851
    4571        8     1831     1872     1846
    4572        8     1831     1872     1850
    4573        8     1831     1872     1851
    4574        8     1846     1872     1850
    4575        8     1846     1872     1851
    4576        8     1850     1872     1851
    4577        1     1926     1873     1941
    4578        3      629     1874     1388
    4579        2      629     1874     1917
    4580        2     1388     1874     1917
    4581        1     1928     1876     1943
    4582        2     1895     1877     1920
    4583        3     1895     1877     1927
    4584        2     1920     1877     1927
    4585        1      634     1879     1942
    4586        2     1454     1880     1911
    4587        3     1454     1880     1929
    4588        2     1911     1880     1929
    4589        1     1932     1882     1944
    4590        2     1745     1883     1914
    4591        3     1745     1883     1931
    4592        2     1914     1883     1931
    4593        1      638     1885     1943
    4594        2     1664     1886     1905
    4595        3     1664     1886     1933
    4596        2     1905     1886     1933
    4597        1     1936     1888     1941
    4598        2     1811     1889     1908
    4599        3     1811     1889     1935
    4600        2     1908     1889     1935
    4601        1     1938     1891     1944
    4602        3      641     1892     1514
    4603        2      641     1892     1899
    4604        2     1514     1892     1899
    4605        1     1940     1894     1942
    4606        2     1877     1895     1902
    4607        3     1877     1895     1939
    4608        2     1902     1895     1939
    4609        1      642     1897     1943
    4610        2     1556     1898     1893
    4611        3     1556     1898     1937
    4612        2     1893     1898     1937
    4613        1     1940     1900     1941
    4614        2     1896     1901     1919
    4615        2     1896     1901     1939
    4616        3     1919     1901     1939
    4617        1     1934     1903     1944
    4618        3      637     1904     1694
    4619        2      637     1904     1887
    4620        2     1694     1904     1887
    4621        1     1936     1906     1942
    4622        2     1841     1907     1890
    4623        3     1841     1907     1935
    4624        2     1890     1907     1935
    4625        1     1930     1909     1941
    4626        3      633     1910     1472
    4627        2      633     1910     1881
    4628        2     1472     1910     1881
    4629        1     1932     1912     1943
    4630        2     1763     1913     1884
    4631        3     1763     1913     1931
    4632        2     1884     1913     1931
    4633        1      630     1915     1942
    4634        2     1394     1916     1875
    4635        3     1394     1916     1925
    4636        2     1875     1916     1925
    4637        1     1928     1918     1944
    4638        2     1878     1919     1901
    4639        2     1878     1919     1927
    4640        3     1901     1919     1927
    4641        4     1294     1921     1941
    4642        4     1943     1922     1944
    4643        4     1295     1923     1944
    4644        4     1941     1924     1942
    4645        3     1226     1925     1916
    4646        5     1226     1925     1926
    4647        5     1916     1925     1926
    4648        7     1267     1926     1873
    4649        6     1267     1926     1925
    4650        6     1873     1926     1925
    4651        3     1877     1927     1919
    4652        5     1877     1927     1928
    4653        5     1919     1927     1928
    4654        7     1876     1928     1918
    4655        6     1876     1928     1927
    4656        6     1918     1928     1927
    4657        3     1262     1929     1880
    4658        5     1262     1929     1930
    4659        5     1880     1929     1930
    4660        7     1231     1930     1909
    4661        6     1231     1930     1929
    4662        6     1909     1930     1929
    4663        3     1883     1931     1913
    4664        5     1883     1931     1932
    4665        5     1913     1931     1932
    4666        7     1882     1932     1912
    4667        6     1882     1932     1931
    4668        6     1912     1932     1931
    4669        3     1256     1933     1886
    4670        5     1256     1933     1934
    4671        5     1886     1933     1934
    4672        7     1237     1934     1903
    4673        6     1237     1934     1933
    4674        6     1903     1934     1933
    4675        3     1889     1935     1907
    4676        5     1889     1935     1936
    4677        5     1907     1935     1936
    4678        7     1888     1936     1906
    4679        6     1888     1936     1935
    4680        6     1906     1936     1935
    4681        3     1244     1937     1898
    4682        5     1244     1937     1938
    4683        5     1898     1937     1938
    4684        7     1249     1938     1891
    4685        6     1249     1938     1937
    4686        6     1891     1938     1937
    4687        3     1895     1939     1901
    4688        5     1895     1939     1940
    4689        5     1901     1939     1940
    4690        7     1894     1940     1900
    4691        6     1894     1940     1939
    4692        6     1900     1940     1939
    4693        8     1873     1941     1888
    4694        8     1873     1941     1900
    4695        8     1873     1941     1909
    4696        8     1873     1941     1921
    4697        8     1873     1941     1924
    4698        8     1888     1941     1900
    4699        8     1888     1941     1909
    4700        8     1888     1941     1921
    4701        8     1888     1941     1924
    4702        8     1900     1941     1909
    4703        8     1900     1941     1921
    4704        8     1900     1941     1924
    4705        8     1909     1941     1921
    4706        8     1909     1941     1924
    4707        8     1921     1941     1924
    4708        8      625     1942     1879
    4709        8      625     1942     1894
    4710        8      625     1942     1906
    4711        8      625     1942     1915
    4712        8      625     1942     1924
    4713        8     1879     1942     1894
    4714        8     1879     1942     1906
    4715        8     1879     1942     1915
    4716        8     1879     1942     1924
    4717        8     1894     1942     1906
    4718        8     1894     1942     1915
    4719        8     1894     1942     1924
    4720        8     1906     1942     1915
    4721        8     1906     1942     1924
    4722        8     1915     1942     1924
    4723        8      627     1943     1876
    4724        8      627     1943     1885
    4725        8      627     1943     1897
    4726        8      627     1943     1912
    4727        8      627     1943     1922
    4728        8     1876     1943     1885
    4729        8     1876     1943     1897
    4730        8     1876     1943     1912
    4731        8     1876     1943     1922
    4732        8     1885     1943     1897
    4733        8     1885     1943     1912
    4734        8     1885     1943     1922
    4735        8     1897     1943     1912
    4736        8     1897     1943     1922
    4737        8     1912     1943     1922
    4738        8     1882     1944     1891
    4739        8     1882     1944     1903
    4740        8     1882     1944     1918
    4741        8     1882     1944     1922
    4742        8     1882     1944     1923
    4743        8     1891     1944     1903
    4744        8     1891     1944     1918
    4745        8     1891     1944     1922
    4746        8     1891     1944     1923
    4747        8     1903     1944     1918
    4748        8     1903     1944     1922
    4749        8     1903     1944     1923
    4750        8     1918     1944     1922
    4751        8     1918     1944     1923
    4752        8     1922     1944     1923
    4753        9     1946     1945     1947
    4754        9     1949     1948     1950
    4755        9     1952     1951     1953
    4756        9     1955     1954     1956
    4757        9     1958     1957     1959
    4758        9     1961     1960     1962
    4759        9     1964     1963     1965
    4760        9     1967     1966     1968
    4761        9     1970     1969     1971
    4762        9     1973     1972     1974
    4763        9     1976     1975     1977
    4764        9     1979     1978     1980
    4765        9     1982     1981     1983
    4766        9     1985     1984     1986
    4767        9     1988     1987     1989
    4768        9     1991     1990     1992
    4769        9     1994     1993     1995
    4770        9     1997     1996     1998
    4771        9     2000     1999     2001
    4772        9     2003     2002     2004
    4773        9     2006     2005     2007
    4774        9     2009     2008     2010
    4775        9     2012     2011     2013
    4776        9     2015     2014     2016
    4777        9     2018     2017     2019
    4778        9     2021     2020     2022
    4779        9     2024     2023     2025
    4780        9     2027     2026     2028
    4781        9     2030     2029     2031
    4782        9     2033     2032     2034
    4783        9     2036     2035     2037
    4784        9     2039     2038     2040
    4785        9     2042     2041     2043
    4786        9     2045     2044     2046
    4787        9     2048     2047     2049
    4788        9     2051     2050     2052
    4789        9     2054     2053     2055
    4790        9     2057     2056     2058
    4791        9     2060     2059     2061
    4792        9     2063     2062     2064
    4793        9     2066     2065     2067
    4794        9     2069     2068     2070
    4795        9     2072     2071     2073
    4796        9     2075     2074     2076
    4797        9     2078     2077     2079
    4798        9     2081     2080     2082
    4799        9     2084     2083     2085
    4800        9     2087     2086     2088
    4801        9     2090     2089     2091
    4802        9     2093     2092     2094
    4803        9     2096     2095     2097
    4804        9     2099     2098     2100
    4805        9     2102     2101     2103
    4806        9     2105     2104     2106
    4807        9     2108     2107     2109
    4808        9     2111     2110     2112
    4809        9     2114     2113     2115
    4810        9     2117     2116     2118
    4811        9     2120     2119     2121
    4812        9     2123     2122     2124
    4813        9     2126     2125     2127
    4814        9     2129     2128     2130
    4815        9     2132     2131     2133
    4816        9     2135     2134     2136
    4817        9     2138     2137     2139
    4818        9     2141     2140     2142
    4819        9     2144     2143     2145
    4820        9     2147     2146     2148
    4821        9     2150     2149     2151
    4822        9     2153     2152     2154
    4823        9     2156     2155     2157
    4824        9     2159     2158     2160
    4825        9     2162     2161     2163
    4826        9     2165     2164     2166
    4827        9     2168     2167     2169
    4828        9     2171     2170     2172
    4829        9     2174     2173     2175
    4830        9     2177     2176     2178
    4831        9     2180     2179     2181
    4832        9     2183     2182     2184
    4833        9     2186     2185     2187
    4834        9     2189     2188     2190
    4835        9     2192     2191     2193
    4836        9     2195     2194     2196
    4837        9     2198     2197     2199
    4838        9     2201     2200     2202
    4839        9     2204     2203     2205
    4840        9     2207     2206     2208
    4841        9     2210     2209     2211
    4842        9     2213     2212     2214
    4843        9     2216     2215     2217
    4844        9     2219     2218     2220
    4845        9     2222     2221     2223
    4846        9     2225     2224     2226
    4847        9     2228     2227     2229
    4848        9     2231     2230     2232
    4849        9     2234     2233     2235
    4850        9     2237     2236     2238
    4851        9     2240     2239     2241
    4852        9     2243     2242     2244
    4853        9     2246     2245     2247
    4854        9     2249     2248     2250
    4855        9     2252     2251     2253
    4856        9     2255     2254     2256
    4857        9     2258     2257     2259
    4858        9     2261     2260     2262
    4859        9     2264     2263     2265
    4860        9     2267     2266     2268

Dihedrals

       1        1       69        1       54       53
       2        1       69        1       54     1339
       3        2       45        2      701      692
       4        2       45        2      701      702
       5        2      380        2      701      692
       6        2      380        2      701      702
       7        1       71        4       56       46
       8        1       71        4       56       55
       9        2       48        5       23       30
      10        2       48        5       23       67
      11        2       55        5       23       30
      12        2       55        5       23       67
      13        2       23        5       55       47
      14        2       23        5       55       56
      15        2       48        5       55       47
      16        2       48        5       55       56
      17        1       70        7      706      685
      18        1       70        7      706      705
      19        2       39        8       57       58
      20        2       39        8       57     1334
      21        2      230        8       57       58
      22        2      230        8       57     1334
      23        2       39        8      230      249
      24        2       39        8      230      277
      25        2       57        8      230      249
      26        2       57        8      230      277
      27        1       72       10       60       40
      28        1       72       10       60       59
      29        2       42       11       59       41
      30        2       42       11       59       60
      31        2       89       11       59       41
      32        2       89       11       59       60
      33        2       42       11       89      108
      34        2       42       11       89      135
      35        2       59       11       89      108
      36        2       59       11       89      135
      37        1       71       13      710      679
      38        1       71       13      710      709
      39        2       33       14       61       62
      40        2       33       14       61     1328
      41        2      440       14       61       62
      42        2      440       14       61     1328
      43        1       69       16       64       34
      44        1       69       16       64       63
      45        2       36       17       63       35
      46        2       36       17       63       64
      47        2      155       17       63       35
      48        2      155       17       63       64
      49        1       72       19       66       65
      50        1       72       19       66     1321
      51        2       27       20      713      674
      52        2       27       20      713      714
      53        2      506       20      713      674
      54        2      506       20      713      714
      55        1       70       22       68       28
      56        1       70       22       68       67
      57        2        5       23       67       29
      58        2        5       23       67       68
      59        2       30       23       67       29
      60        2       30       23       67       68
      61        1       71       25      714      667
      62        1       71       25      714      713
      63        2       21       26       65       66
      64        2       21       26       65     1316
      65        2      548       26       65       66
      66        2      548       26       65     1316
      67        1       69       28       68       22
      68        1       69       28       68       67
      69        2       24       29       47        6
      70        2       24       29       47       55
      71        2       67       29       47        6
      72        2       67       29       47       55
      73        2       24       29       67       23
      74        2       24       29       67       68
      75        2       47       29       67       23
      76        2       47       29       67       68
      77        1       72       31       62       61
      78        1       72       31       62     1309
      79        2       15       32      709      662
      80        2       15       32      709      710
      81        2      470       32      709      662
      82        2      470       32      709      710
      83        1       70       34       64       16
      84        1       70       34       64       63
      85        2       18       35       63       17
      86        2       18       35       63       64
      87        2      185       35       63       17
      88        2      185       35       63       64
      89        1       69       37       58       57
      90        1       69       37       58     1303
      91        2        9       38      248      231
      92        2        9       38      248      925
      93        2      705       38      248      231
      94        2      705       38      248      925
      95        2        9       38      705      656
      96        2        9       38      705      706
      97        2      248       38      705      656
      98        2      248       38      705      706
      99        1       71       40       60       10
     100        1       71       40       60       59
     101        2       12       41       59       11
     102        2       12       41       59       60
     103        2      107       41       59       11
     104        2      107       41       59       60
     105        2       12       41      107       90
     106        2       12       41      107      135
     107        2       59       41      107       90
     108        2       59       41      107      135
     109        1       70       43      702      649
     110        1       70       43      702      701
     111        2        3       44       53       54
     112        2        3       44       53     1298
     113        2      386       44       53       54
     114        2      386       44       53     1298
     115        1       72       46       56        4
     116        1       72       46       56       55
     117        2        6       47       55        5
     118        2        6       47       55       56
     119        2       29       47       55        5
     120        2       29       47       55       56
     121        3       44       53       54        1
     122        3       44       53       54     1339
     123        3     1298       53       54        1
     124        3     1298       53       54     1339
     125        3        5       55       56        4
     126        3        5       55       56       46
     127        3       47       55       56        4
     128        3       47       55       56       46
     129        3        8       57       58       37
     130        3        8       57       58     1303
     131        3     1334       57       58       37
     132        3     1334       57       58     1303
     133        3       11       59       60       10
     134        3       11       59       60       40
     135        3       41       59       60       10
     136        3       41       59       60       40
     137        3       14       61       62       31
     138        3       14       61       62     1309
     139        3     1328       61       62       31
     140        3     1328       61       62     1309
     141        3       17       63       64       16
     142        3       17       63       64       34
     143        3       35       63       64       16
     144        3       35       63       64       34
     145        3       26       65       66       19
     146        3       26       65       66     1321
     147        3     1316       65       66       19
     148        3     1316       65       66     1321
     149        3       23       67       68       22
     150        3       23       67       68       28
     151        3       29       67       68       22
     152        3       29       67       68       28
     153        1      141       73      126      125
     154        1      141       73      126     1411
     155        2      117       74      236      243
     156        2      117       74      236      929
     157        2      773       74      236      243
     158        2      773       74      236      929
     159        2      117       74      773      764
     160        2      117       74      773      774
     161        2      236       74      773      764
     162        2      236       74      773      774
     163        1      143       76      128      118
     164        1      143       76      128      127
     165        2      120       77       95      102
     166        2      120       77       95      139
     167        2      127       77       95      102
     168        2      127       77       95      139
     169        2       95       77      127      119
     170        2       95       77      127      128
     171        2      120       77      127      119
     172        2      120       77      127      128
     173        1      142       79      778      757
     174        1      142       79      778      777
     175        2      111       80      129      130
     176        2      111       80      129     1406
     177        2      302       80      129      130
     178        2      302       80      129     1406
     179        2      111       80      302      321
     180        2      111       80      302      349
     181        2      129       80      302      321
     182        2      129       80      302      349
     183        1      144       82      132      112
     184        1      144       82      132      131
     185        2      114       83      131      113
     186        2      114       83      131      132
     187        2      161       83      131      113
     188        2      161       83      131      132
     189        2      114       83      161      180
     190        2      114       83      161      207
     191        2      131       83      161      180
     192        2      131       83      161      207
     193        1      143       85      782      751
     194        1      143       85      782      781
     195        2      105       86      133      134
     196        2      105       86      133     1400
     197        2      512       86      133      134
     198        2      512       86      133     1400
     199        1      141       88      136      106
     200        1      141       88      136      135
     201        2       11       89      135      107
     202        2       11       89      135      136
     203        2      108       89      135      107
     204        2      108       89      135      136
     205        1      144       91      138      137
     206        1      144       91      138     1393
     207        2       99       92      785      746
     208        2       99       92      785      786
     209        2      578       92      785      746
     210        2      578       92      785      786
     211        1      142       94      140      100
     212        1      142       94      140      139
     213        2       77       95      139      101
     214        2       77       95      139      140
     215        2      102       95      139      101
     216        2      102       95      139      140
     217        1      143       97      786      739
     218        1      143       97      786      785
     219        2       93       98      137      138
     220        2       93       98      137     1388
     221        2      620       98      137      138
     222        2      620       98      137     1388
     223        1      141      100      140       94
     224        1      141      100      140      139
     225        2       96      101      119       78
     226        2       96      101      119      127
     227        2      139      101      119       78
     228        2      139      101      119      127
     229        2       96      101      139       95
     230        2       96      101      139      140
     231        2      119      101      139       95
     232        2      119      101      139      140
     233        1      144      103      134      133
     234        1      144      103      134     1381
     235        2       87      104      781      734
     236        2       87      104      781      782
     237        2      542      104      781      734
     238        2      542      104      781      782
     239        1      142      106      136       88
     240        1      142      106      136      135
     241        2       41      107      135       89
     242        2       41      107      135      136
     243        2       90      107      135       89
     244        2       90      107      135      136
     245        1      141      109      130      129
     246        1      141      109      130     1375
     247        2       81      110      320      303
     248        2       81      110      320      997
     249        2      777      110      320      303
     250        2      777      110      320      997
     251        2       81      110      777      728
     252        2       81      110      777      778
     253        2      320      110      777      728
     254        2      320      110      777      778
     255        1      143      112      132       82
     256        1      143      112      132      131
     257        2       84      113      131       83
     258        2       84      113      131      132
     259        2      179      113      131       83
     260        2      179      113      131      132
     261        2       84      113      179      162
     262        2       84      113      179      207
     263        2      131      113      179      162
     264        2      131      113      179      207
     265        1      142      115      774      721
     266        1      142      115      774      773
     267        2       75      116      125      126
     268        2       75      116      125     1370
     269        2      242      116      125      126
     270        2      242      116      125     1370
     271        2       75      116      242      237
     272        2       75      116      242      281
     273        2      125      116      242      237
     274        2      125      116      242      281
     275        1      144      118      128       76
     276        1      144      118      128      127
     277        2       78      119      127       77
     278        2       78      119      127      128
     279        2      101      119      127       77
     280        2      101      119      127      128
     281        3      116      125      126       73
     282        3      116      125      126     1411
     283        3     1370      125      126       73
     284        3     1370      125      126     1411
     285        3       77      127      128       76
     286        3       77      127      128      118
     287        3      119      127      128       76
     288        3      119      127      128      118
     289        3       80      129      130      109
     290        3       80      129      130     1375
     291        3     1406      129      130      109
     292        3     1406      129      130     1375
     293        3       83      131      132       82
     294        3       83      131      132      112
     295        3      113      131      132       82
     296        3      113      131      132      112
     297        3       86      133      134      103
     298        3       86      133      134     1381
     299        3     1400      133      134      103
     300        3     1400      133      134     1381
     301        3       89      135      136       88
     302        3       89      135      136      106
     303        3      107      135      136       88
     304        3      107      135      136      106
     305        3       98      137      138       91
     306        3       98      137      138     1393
     307        3     1388      137      138       91
     308        3     1388      137      138     1393
     309        3       95      139      140       94
     310        3       95      139      140      100
     311        3      101      139      140       94
     312        3      101      139      140      100
     313        1      213      145      198      197
     314        1      213      145      198     1483
     315        2      189      146      308      315
     316        2      189      146      308     1001
     317        2      845      146      308      315
     318        2      845      146      308     1001
     319        2      189      146      845      836
     320        2      189      146      845      846
     321        2      308      146      845      836
     322        2      308      146      845      846
     323        1      215      148      200      190
     324        1      215      148      200      199
     325        2      192      149      167      174
     326        2      192      149      167      211
     327        2      199      149      167      174
     328        2      199      149      167      211
     329        2      167      149      199      191
     330        2      167      149      199      200
     331        2      192      149      199      191
     332        2      192      149      199      200
     333        1      214      151      850      829
     334        1      214      151      850      849
     335        2      183      152      201      202
     336        2      183      152      201     1478
     337        2      374      152      201      202
     338        2      374      152      201     1478
     339        2      183      152      374      393
     340        2      183      152      374      421
     341        2      201      152      374      393
     342        2      201      152      374      421
     343        1      216      154      204      184
     344        1      216      154      204      203
     345        2      186      155       17       36
     346        2      186      155       17       63
     347        2      203      155       17       36
     348        2      203      155       17       63
     349        2       17      155      203      185
     350        2       17      155      203      204
     351        2      186      155      203      185
     352        2      186      155      203      204
     353        1      215      157      854      823
     354        1      215      157      854      853
     355        2      177      158      205      206
     356        2      177      158      205     1472
     357        2      584      158      205      206
     358        2      584      158      205     1472
     359        1      213      160      208      178
     360        1      213      160      208      207
     361        2       83      161      207      179
     362        2       83      161      207      208
     363        2      180      161      207      179
     364        2      180      161      207      208
     365        1      216      163      210      209
     366        1      216      163      210     1465
     367        2      171      164      857      818
     368        2      171      164      857      858
     369        2      434      164      857      818
     370        2      434      164      857      858
     371        1      214      166      212      172
     372        1      214      166      212      211
     373        2      149      167      211      173
     374        2      149      167      211      212
     375        2      174      167      211      173
     376        2      174      167      211      212
     377        1      215      169      858      811
     378        1      215      169      858      857
     379        2      165      170      209      210
     380        2      165      170      209     1460
     381        2      476      170      209      210
     382        2      476      170      209     1460
     383        1      213      172      212      166
     384        1      213      172      212      211
     385        2      168      173      191      150
     386        2      168      173      191      199
     387        2      211      173      191      150
     388        2      211      173      191      199
     389        2      168      173      211      167
     390        2      168      173      211      212
     391        2      191      173      211      167
     392        2      191      173      211      212
     393        1      216      175      206      205
     394        1      216      175      206     1453
     395        2      159      176      853      806
     396        2      159      176      853      854
     397        2      614      176      853      806
     398        2      614      176      853      854
     399        1      214      178      208      160
     400        1      214      178      208      207
     401        2      113      179      207      161
     402        2      113      179      207      208
     403        2      162      179      207      161
     404        2      162      179      207      208
     405        1      213      181      202      201
     406        1      213      181      202     1447
     407        2      153      182      392      375
     408        2      153      182      392     1069
     409        2      849      182      392      375
     410        2      849      182      392     1069
     411        2      153      182      849      800
     412        2      153      182      849      850
     413        2      392      182      849      800
     414        2      392      182      849      850
     415        1      215      184      204      154
     416        1      215      184      204      203
     417        2      156      185       35       18
     418        2      156      185       35       63
     419        2      203      185       35       18
     420        2      203      185       35       63
     421        2       35      185      203      155
     422        2       35      185      203      204
     423        2      156      185      203      155
     424        2      156      185      203      204
     425        1      214      187      846      793
     426        1      214      187      846      845
     427        2      147      188      197      198
     428        2      147      188      197     1442
     429        2      314      188      197      198
     430        2      314      188      197     1442
     431        2      147      188      314      309
     432        2      147      188      314      353
     433        2      197      188      314      309
     434        2      197      188      314      353
     435        1      216      190      200      148
     436        1      216      190      200      199
     437        2      150      191      199      149
     438        2      150      191      199      200
     439        2      173      191      199      149
     440        2      173      191      199      200
     441        3      188      197      198      145
     442        3      188      197      198     1483
     443        3     1442      197      198      145
     444        3     1442      197      198     1483
     445        3      149      199      200      148
     446        3      149      199      200      190
     447        3      191      199      200      148
     448        3      191      199      200      190
     449        3      152      201      202      181
     450        3      152      201      202     1447
     451        3     1478      201      202      181
     452        3     1478      201      202     1447
     453        3      155      203      204      154
     454        3      155      203      204      184
     455        3      185      203      204      154
     456        3      185      203      204      184
     457        3      158      205      206      175
     458        3      158      205      206     1453
     459        3     1472      205      206      175
     460        3     1472      205      206     1453
     461        3      161      207      208      160
     462        3      161      207      208      178
     463        3      179      207      208      160
     464        3      179      207      208      178
     465        3      170      209      210      163
     466        3      170      209      210     1465
     467        3     1460      209      210      163
     468        3     1460      209      210     1465
     469        3      167      211      212      166
     470        3      167      211      212      172
     471        3      173      211      212      166
     472        3      173      211      212      172
     473        1      285      217      270      269
     474        1      285      217      270     1555
     475        2      261      218      917      908
     476        2      261      218      917      918
     477        2      596      218      917      908
     478        2      596      218      917      918
     479        1      287      220      272      262
     480        1      287      220      272      271
     481        2      264      221      239      246
     482        2      264      221      239      283
     483        2      271      221      239      246
     484        2      271      221      239      283
     485        2      239      221      271      263
     486        2      239      221      271      272
     487        2      264      221      271      263
     488        2      264      221      271      272
     489        1      286      223      922      901
     490        1      286      223      922      921
     491        2      255      224      273      274
     492        2      255      224      273     1550
     493        2      446      224      273      274
     494        2      446      224      273     1550
     495        2      255      224      446      465
     496        2      255      224      446      493
     497        2      273      224      446      465
     498        2      273      224      446      493
     499        1      288      226      276      256
     500        1      288      226      276      275
     501        2      258      227      275      257
     502        2      258      227      275      276
     503        2      305      227      275      257
     504        2      305      227      275      276
     505        2      258      227      305      324
     506        2      258      227      305      351
     507        2      275      227      305      324
     508        2      275      227      305      351
     509        1      287      229      926      895
     510        1      287      229      926      925
     511        2        8      230      277      278
     512        2        8      230      277     1544
     513        2      249      230      277      278
     514        2      249      230      277     1544
     515        1      285      232      280      250
     516        1      285      232      280      279
     517        2      252      233      279      251
     518        2      252      233      279      280
     519        2      371      233      279      251
     520        2      371      233      279      280
     521        1      288      235      282      281
     522        1      288      235      282     1537
     523        2       74      236      929      890
     524        2       74      236      929      930
     525        2      243      236      929      890
     526        2      243      236      929      930
     527        1      286      238      284      244
     528        1      286      238      284      283
     529        2      221      239      283      245
     530        2      221      239      283      284
     531        2      246      239      283      245
     532        2      246      239      283      284
     533        1      287      241      930      883
     534        1      287      241      930      929
     535        2      116      242      281      282
     536        2      116      242      281     1532
     537        2      237      242      281      282
     538        2      237      242      281     1532
     539        1      285      244      284      238
     540        1      285      244      284      283
     541        2      240      245      263      222
     542        2      240      245      263      271
     543        2      283      245      263      222
     544        2      283      245      263      271
     545        2      240      245      283      239
     546        2      240      245      283      284
     547        2      263      245      283      239
     548        2      263      245      283      284
     549        1      288      247      278      277
     550        1      288      247      278     1525
     551        2       38      248      925      878
     552        2       38      248      925      926
     553        2      231      248      925      878
     554        2      231      248      925      926
     555        1      286      250      280      232
     556        1      286      250      280      279
     557        2      234      251      279      233
     558        2      234      251      279      280
     559        2      401      251      279      233
     560        2      401      251      279      280
     561        1      285      253      274      273
     562        1      285      253      274     1519
     563        2      225      254      464      447
     564        2      225      254      464     1141
     565        2      921      254      464      447
     566        2      921      254      464     1141
     567        2      225      254      921      872
     568        2      225      254      921      922
     569        2      464      254      921      872
     570        2      464      254      921      922
     571        1      287      256      276      226
     572        1      287      256      276      275
     573        2      228      257      275      227
     574        2      228      257      275      276
     575        2      323      257      275      227
     576        2      323      257      275      276
     577        2      228      257      323      306
     578        2      228      257      323      351
     579        2      275      257      323      306
     580        2      275      257      323      351
     581        1      286      259      918      865
     582        1      286      259      918      917
     583        2      219      260      269      270
     584        2      219      260      269     1514
     585        2      602      260      269      270
     586        2      602      260      269     1514
     587        1      288      262      272      220
     588        1      288      262      272      271
     589        2      222      263      271      221
     590        2      222      263      271      272
     591        2      245      263      271      221
     592        2      245      263      271      272
     593        3      260      269      270      217
     594        3      260      269      270     1555
     595        3     1514      269      270      217
     596        3     1514      269      270     1555
     597        3      221      271      272      220
     598        3      221      271      272      262
     599        3      263      271      272      220
     600        3      263      271      272      262
     601        3      224      273      274      253
     602        3      224      273      274     1519
     603        3     1550      273      274      253
     604        3     1550      273      274     1519
     605        3      227      275      276      226
     606        3      227      275      276      256
     607        3      257      275      276      226
     608        3      257      275      276      256
     609        3      230      277      278      247
     610        3      230      277      278     1525
     611        3     1544      277      278      247
     612        3     1544      277      278     1525
     613        3      233      279      280      232
     614        3      233      279      280      250
     615        3      251      279      280      232
     616        3      251      279      280      250
     617        3      242      281      282      235
     618        3      242      281      282     1537
     619        3     1532      281      282      235
     620        3     1532      281      282     1537
     621        3      239      283      284      238
     622        3      239      283      284      244
     623        3      245      283      284      238
     624        3      245      283      284      244
     625        1      357      289      342      341
     626        1      357      289      342     1627
     627        2      333      290      452      459
     628        2      333      290      452     1145
     629        2      989      290      452      459
     630        2      989      290      452     1145
     631        2      333      290      989      980
     632        2      333      290      989      990
     633        2      452      290      989      980
     634        2      452      290      989      990
     635        1      359      292      344      334
     636        1      359      292      344      343
     637        2      336      293      311      318
     638        2      336      293      311      355
     639        2      343      293      311      318
     640        2      343      293      311      355
     641        2      311      293      343      335
     642        2      311      293      343      344
     643        2      336      293      343      335
     644        2      336      293      343      344
     645        1      358      295      994      973
     646        1      358      295      994      993
     647        2      327      296      345      346
     648        2      327      296      345     1622
     649        2      518      296      345      346
     650        2      518      296      345     1622
     651        2      327      296      518      537
     652        2      327      296      518      565
     653        2      345      296      518      537
     654        2      345      296      518      565
     655        1      360      298      348      328
     656        1      360      298      348      347
     657        2      330      299      347      329
     658        2      330      299      347      348
     659        2      377      299      347      329
     660        2      377      299      347      348
     661        2      330      299      377      396
     662        2      330      299      377      423
     663        2      347      299      377      396
     664        2      347      299      377      423
     665        1      359      301      998      967
     666        1      359      301      998      997
     667        2       80      302      349      350
     668        2       80      302      349     1616
     669        2      321      302      349      350
     670        2      321      302      349     1616
     671        1      357      304      352      322
     672        1      357      304      352      351
     673        2      227      305      351      323
     674        2      227      305      351      352
     675        2      324      305      351      323
     676        2      324      305      351      352
     677        1      360      307      354      353
     678        1      360      307      354     1609
     679        2      146      308     1001      962
     680        2      146      308     1001     1002
     681        2      315      308     1001      962
     682        2      315      308     1001     1002
     683        1      358      310      356      316
     684        1      358      310      356      355
     685        2      293      311      355      317
     686        2      293      311      355      356
     687        2      318      311      355      317
     688        2      318      311      355      356
     689        1      359      313     1002      955
     690        1      359      313     1002     1001
     691        2      188      314      353      354
     692        2      188      314      353     1604
     693        2      309      314      353      354
     694        2      309      314      353     1604
     695        1      357      316      356      310
     696        1      357      316      356      355
     697        2      312      317      335      294
     698        2      312      317      335      343
     699        2      355      317      335      294
     700        2      355      317      335      343
     701        2      312      317      355      311
     702        2      312      317      355      356
     703        2      335      317      355      311
     704        2      335      317      355      356
     705        1      360      319      350      349
     706        1      360      319      350     1597
     707        2      110      320      997      950
     708        2      110      320      997      998
     709        2      303      320      997      950
     710        2      303      320      997      998
     711        1      358      322      352      304
     712        1      358      322      352      351
     713        2      257      323      351      305
     714        2      257      323      351      352
     715        2      306      323      351      305
     716        2      306      323      351      352
     717        1      357      325      346      345
     718        1      357      325      346     1591
     719        2      297      326      536      519
     720        2      297      326      536     1213
     721        2      993      326      536      519
     722        2      993      326      536     1213
     723        2      297      326      993      944
     724        2      297      326      993      994
     725        2      536      326      993      944
     726        2      536      326      993      994
     727        1      359      328      348      298
     728        1      359      328      348      347
     729        2      300      329      347      299
     730        2      300      329      347      348
     731        2      395      329      347      299
     732        2      395      329      347      348
     733        2      300      329      395      378
     734        2      300      329      395      423
     735        2      347      329      395      378
     736        2      347      329      395      423
     737        1      358      331      990      937
     738        1      358      331      990      989
     739        2      291      332      341      342
     740        2      291      332      341     1586
     741        2      458      332      341      342
     742        2      458      332      341     1586
     743        2      291      332      458      453
     744        2      291      332      458      497
     745        2      341      332      458      453
     746        2      341      332      458      497
     747        1      360      334      344      292
     748        1      360      334      344      343
     749        2      294      335      343      293
     750        2      294      335      343      344
     751        2      317      335      343      293
     752        2      317      335      343      344
     753        3      332      341      342      289
     754        3      332      341      342     1627
     755        3     1586      341      342      289
     756        3     1586      341      342     1627
     757        3      293      343      344      292
     758        3      293      343      344      334
     759        3      335      343      344      292
     760        3      335      343      344      334
     761        3      296      345      346      325
     762        3      296      345      346     1591
     763        3     1622      345      346      325
     764        3     1622      345      346     1591
     765        3      299      347      348      298
     766        3      299      347      348      328
     767        3      329      347      348      298
     768        3      329      347      348      328
     769        3      302      349      350      319
     770        3      302      349      350     1597
     771        3     1616      349      350      319
     772        3     1616      349      350     1597
     773        3      305      351      352      304
     774        3      305      351      352      322
     775        3      323      351      352      304
     776        3      323      351      352      322
     777        3      314      353      354      307
     778        3      314      353      354     1609
     779        3     1604      353      354      307
     780        3     1604      353      354     1609
     781        3      311      355      356      310
     782        3      311      355      356      316
     783        3      317      355      356      310
     784        3      317      355      356      316
     785        1      429      361      414      413
     786        1      429      361      414     1699
     787        2      405      362      524      531
     788        2      405      362      524     1217
     789        2     1061      362      524      531
     790        2     1061      362      524     1217
     791        2      405      362     1061     1052
     792        2      405      362     1061     1062
     793        2      524      362     1061     1052
     794        2      524      362     1061     1062
     795        1      431      364      416      406
     796        1      431      364      416      415
     797        2      408      365      383      390
     798        2      408      365      383      427
     799        2      415      365      383      390
     800        2      415      365      383      427
     801        2      383      365      415      407
     802        2      383      365      415      416
     803        2      408      365      415      407
     804        2      408      365      415      416
     805        1      430      367     1066     1045
     806        1      430      367     1066     1065
     807        2      399      368      417      418
     808        2      399      368      417     1694
     809        2      590      368      417      418
     810        2      590      368      417     1694
     811        2      399      368      590      609
     812        2      399      368      590      637
     813        2      417      368      590      609
     814        2      417      368      590      637
     815        1      432      370      420      400
     816        1      432      370      420      419
     817        2      402      371      233      252
     818        2      402      371      233      279
     819        2      419      371      233      252
     820        2      419      371      233      279
     821        2      233      371      419      401
     822        2      233      371      419      420
     823        2      402      371      419      401
     824        2      402      371      419      420
     825        1      431      373     1070     1039
     826        1      431      373     1070     1069
     827        2      152      374      421      422
     828        2      152      374      421     1688
     829        2      393      374      421      422
     830        2      393      374      421     1688
     831        1      429      376      424      394
     832        1      429      376      424      423
     833        2      299      377      423      395
     834        2      299      377      423      424
     835        2      396      377      423      395
     836        2      396      377      423      424
     837        1      432      379      426      425
     838        1      432      379      426     1681
     839        2      387      380        2       45
     840        2      387      380        2      701
     841        2     1073      380        2       45
     842        2     1073      380        2      701
     843        2        2      380     1073     1034
     844        2        2      380     1073     1074
     845        2      387      380     1073     1034
     846        2      387      380     1073     1074
     847        1      430      382      428      388
     848        1      430      382      428      427
     849        2      365      383      427      389
     850        2      365      383      427      428
     851        2      390      383      427      389
     852        2      390      383      427      428
     853        1      431      385     1074     1027
     854        1      431      385     1074     1073
     855        2      381      386       44        3
     856        2      381      386       44       53
     857        2      425      386       44        3
     858        2      425      386       44       53
     859        2       44      386      425      426
     860        2       44      386      425     1676
     861        2      381      386      425      426
     862        2      381      386      425     1676
     863        1      429      388      428      382
     864        1      429      388      428      427
     865        2      384      389      407      366
     866        2      384      389      407      415
     867        2      427      389      407      366
     868        2      427      389      407      415
     869        2      384      389      427      383
     870        2      384      389      427      428
     871        2      407      389      427      383
     872        2      407      389      427      428
     873        1      432      391      422      421
     874        1      432      391      422     1669
     875        2      182      392     1069     1022
     876        2      182      392     1069     1070
     877        2      375      392     1069     1022
     878        2      375      392     1069     1070
     879        1      430      394      424      376
     880        1      430      394      424      423
     881        2      329      395      423      377
     882        2      329      395      423      424
     883        2      378      395      423      377
     884        2      378      395      423      424
     885        1      429      397      418      417
     886        1      429      397      418     1663
     887        2      369      398      608      591
     888        2      369      398      608     1285
     889        2     1065      398      608      591
     890        2     1065      398      608     1285
     891        2      369      398     1065     1016
     892        2      369      398     1065     1066
     893        2      608      398     1065     1016
     894        2      608      398     1065     1066
     895        1      431      400      420      370
     896        1      431      400      420      419
     897        2      372      401      251      234
     898        2      372      401      251      279
     899        2      419      401      251      234
     900        2      419      401      251      279
     901        2      251      401      419      371
     902        2      251      401      419      420
     903        2      372      401      419      371
     904        2      372      401      419      420
     905        1      430      403     1062     1009
     906        1      430      403     1062     1061
     907        2      363      404      413      414
     908        2      363      404      413     1658
     909        2      530      404      413      414
     910        2      530      404      413     1658
     911        2      363      404      530      525
     912        2      363      404      530      569
     913        2      413      404      530      525
     914        2      413      404      530      569
     915        1      432      406      416      364
     916        1      432      406      416      415
     917        2      366      407      415      365
     918        2      366      407      415      416
     919        2      389      407      415      365
     920        2      389      407      415      416
     921        3      404      413      414      361
     922        3      404      413      414     1699
     923        3     1658      413      414      361
     924        3     1658      413      414     1699
     925        3      365      415      416      364
     926        3      365      415      416      406
     927        3      407      415      416      364
     928        3      407      415      416      406
     929        3      368      417      418      397
     930        3      368      417      418     1663
     931        3     1694      417      418      397
     932        3     1694      417      418     1663
     933        3      371      419      420      370
     934        3      371      419      420      400
     935        3      401      419      420      370
     936        3      401      419      420      400
     937        3      374      421      422      391
     938        3      374      421      422     1669
     939        3     1688      421      422      391
     940        3     1688      421      422     1669
     941        3      377      423      424      376
     942        3      377      423      424      394
     943        3      395      423      424      376
     944        3      395      423      424      394
     945        3      386      425      426      379
     946        3      386      425      426     1681
     947        3     1676      425      426      379
     948        3     1676      425      426     1681
     949        3      383      427      428      382
     950        3      383      427      428      388
     951        3      389      427      428      382
     952        3      389      427      428      388
     953        1      501      433      486      485
     954        1      501      433      486     1771
     955        2      477      434      164      171
     956        2      477      434      164      857
     957        2     1133      434      164      171
     958        2     1133      434      164      857
     959        2      164      434     1133     1124
     960        2      164      434     1133     1134
     961        2      477      434     1133     1124
     962        2      477      434     1133     1134
     963        1      503      436      488      478
     964        1      503      436      488      487
     965        2      480      437      455      462
     966        2      480      437      455      499
     967        2      487      437      455      462
     968        2      487      437      455      499
     969        2      455      437      487      479
     970        2      455      437      487      488
     971        2      480      437      487      479
     972        2      480      437      487      488
     973        1      502      439     1138     1117
     974        1      502      439     1138     1137
     975        2      471      440       14       33
     976        2      471      440       14       61
     977        2      489      440       14       33
     978        2      489      440       14       61
     979        2       14      440      489      490
     980        2       14      440      489     1766
     981        2      471      440      489      490
     982        2      471      440      489     1766
     983        1      504      442      492      472
     984        1      504      442      492      491
     985        2      474      443      491      473
     986        2      474      443      491      492
     987        2      521      443      491      473
     988        2      521      443      491      492
     989        2      474      443      521      540
     990        2      474      443      521      567
     991        2      491      443      521      540
     992        2      491      443      521      567
     993        1      503      445     1142     1111
     994        1      503      445     1142     1141
     995        2      224      446      493      494
     996        2      224      446      493     1760
     997        2      465      446      493      494
     998        2      465      446      493     1760
     999        1      501      448      496      466
    1000        1      501      448      496      495
    1001        2      468      449      495      467
    1002        2      468      449      495      496
    1003        2      587      449      495      467
    1004        2      587      449      495      496
    1005        1      504      451      498      497
    1006        1      504      451      498     1753
    1007        2      290      452     1145     1106
    1008        2      290      452     1145     1146
    1009        2      459      452     1145     1106
    1010        2      459      452     1145     1146
    1011        1      502      454      500      460
    1012        1      502      454      500      499
    1013        2      437      455      499      461
    1014        2      437      455      499      500
    1015        2      462      455      499      461
    1016        2      462      455      499      500
    1017        1      503      457     1146     1099
    1018        1      503      457     1146     1145
    1019        2      332      458      497      498
    1020        2      332      458      497     1748
    1021        2      453      458      497      498
    1022        2      453      458      497     1748
    1023        1      501      460      500      454
    1024        1      501      460      500      499
    1025        2      456      461      479      438
    1026        2      456      461      479      487
    1027        2      499      461      479      438
    1028        2      499      461      479      487
    1029        2      456      461      499      455
    1030        2      456      461      499      500
    1031        2      479      461      499      455
    1032        2      479      461      499      500
    1033        1      504      463      494      493
    1034        1      504      463      494     1741
    1035        2      254      464     1141     1094
    1036        2      254      464     1141     1142
    1037        2      447      464     1141     1094
    1038        2      447      464     1141     1142
    1039        1      502      466      496      448
    1040        1      502      466      496      495
    1041        2      450      467      495      449
    1042        2      450      467      495      496
    1043        2      617      467      495      449
    1044        2      617      467      495      496
    1045        1      501      469      490      489
    1046        1      501      469      490     1735
    1047        2      441      470       32       15
    1048        2      441      470       32      709
    1049        2     1137      470       32       15
    1050        2     1137      470       32      709
    1051        2       32      470     1137     1088
    1052        2       32      470     1137     1138
    1053        2      441      470     1137     1088
    1054        2      441      470     1137     1138
    1055        1      503      472      492      442
    1056        1      503      472      492      491
    1057        2      444      473      491      443
    1058        2      444      473      491      492
    1059        2      539      473      491      443
    1060        2      539      473      491      492
    1061        2      444      473      539      522
    1062        2      444      473      539      567
    1063        2      491      473      539      522
    1064        2      491      473      539      567
    1065        1      502      475     1134     1081
    1066        1      502      475     1134     1133
    1067        2      435      476      170      165
    1068        2      435      476      170      209
    1069        2      485      476      170      165
    1070        2      485      476      170      209
    1071        2      170      476      485      486
    1072        2      170      476      485     1730
    1073        2      435      476      485      486
    1074        2      435      476      485     1730
    1075        1      504      478      488      436
    1076        1      504      478      488      487
    1077        2      438      479      487      437
    1078        2      438      479      487      488
    1079        2      461      479      487      437
    1080        2      461      479      487      488
    1081        3      476      485      486      433
    1082        3      476      485      486     1771
    1083        3     1730      485      486      433
    1084        3     1730      485      486     1771
    1085        3      437      487      488      436
    1086        3      437      487      488      478
    1087        3      479      487      488      436
    1088        3      479      487      488      478
    1089        3      440      489      490      469
    1090        3      440      489      490     1735
    1091        3     1766      489      490      469
    1092        3     1766      489      490     1735
    1093        3      443      491      492      442
    1094        3      443      491      492      472
    1095        3      473      491      492      442
    1096        3      473      491      492      472
    1097        3      446      493      494      463
    1098        3      446      493      494     1741
    1099        3     1760      493      494      463
    1100        3     1760      493      494     1741
    1101        3      449      495      496      448
    1102        3      449      495      496      466
    1103        3      467      495      496      448
    1104        3      467      495      496      466
    1105        3      458      497      498      451
    1106        3      458      497      498     1753
    1107        3     1748      497      498      451
    1108        3     1748      497      498     1753
    1109        3      455      499      500      454
    1110        3      455      499      500      460
    1111        3      461      499      500      454
    1112        3      461      499      500      460
    1113        1      573      505      558      557
    1114        1      573      505      558     1843
    1115        2      549      506       20       27
    1116        2      549      506       20      713
    1117        2     1205      506       20       27
    1118        2     1205      506       20      713
    1119        2       20      506     1205     1196
    1120        2       20      506     1205     1206
    1121        2      549      506     1205     1196
    1122        2      549      506     1205     1206
    1123        1      575      508      560      550
    1124        1      575      508      560      559
    1125        2      552      509      527      534
    1126        2      552      509      527      571
    1127        2      559      509      527      534
    1128        2      559      509      527      571
    1129        2      527      509      559      551
    1130        2      527      509      559      560
    1131        2      552      509      559      551
    1132        2      552      509      559      560
    1133        1      574      511     1210     1189
    1134        1      574      511     1210     1209
    1135        2      543      512       86      105
    1136        2      543      512       86      133
    1137        2      561      512       86      105
    1138        2      561      512       86      133
    1139        2       86      512      561      562
    1140        2       86      512      561     1838
    1141        2      543      512      561      562
    1142        2      543      512      561     1838
    1143        1      576      514      564      544
    1144        1      576      514      564      563
    1145        2      546      515      563      545
    1146        2      546      515      563      564
    1147        2      593      515      563      545
    1148        2      593      515      563      564
    1149        2      546      515      593      612
    1150        2      546      515      593      639
    1151        2      563      515      593      612
    1152        2      563      515      593      639
    1153        1      575      517     1214     1183
    1154        1      575      517     1214     1213
    1155        2      296      518      565      566
    1156        2      296      518      565     1832
    1157        2      537      518      565      566
    1158        2      537      518      565     1832
    1159        1      573      520      568      538
    1160        1      573      520      568      567
    1161        2      443      521      567      539
    1162        2      443      521      567      568
    1163        2      540      521      567      539
    1164        2      540      521      567      568
    1165        1      576      523      570      569
    1166        1      576      523      570     1825
    1167        2      362      524     1217     1178
    1168        2      362      524     1217     1218
    1169        2      531      524     1217     1178
    1170        2      531      524     1217     1218
    1171        1      574      526      572      532
    1172        1      574      526      572      571
    1173        2      509      527      571      533
    1174        2      509      527      571      572
    1175        2      534      527      571      533
    1176        2      534      527      571      572
    1177        1      575      529     1218     1171
    1178        1      575      529     1218     1217
    1179        2      404      530      569      570
    1180        2      404      530      569     1820
    1181        2      525      530      569      570
    1182        2      525      530      569     1820
    1183        1      573      532      572      526
    1184        1      573      532      572      571
    1185        2      528      533      551      510
    1186        2      528      533      551      559
    1187        2      571      533      551      510
    1188        2      571      533      551      559
    1189        2      528      533      571      527
    1190        2      528      533      571      572
    1191        2      551      533      571      527
    1192        2      551      533      571      572
    1193        1      576      535      566      565
    1194        1      576      535      566     1813
    1195        2      326      536     1213     1166
    1196        2      326      536     1213     1214
    1197        2      519      536     1213     1166
    1198        2      519      536     1213     1214
    1199        1      574      538      568      520
    1200        1      574      538      568      567
    1201        2      473      539      567      521
    1202        2      473      539      567      568
    1203        2      522      539      567      521
    1204        2      522      539      567      568
    1205        1      573      541      562      561
    1206        1      573      541      562     1807
    1207        2      513      542      104       87
    1208        2      513      542      104      781
    1209        2     1209      542      104       87
    1210        2     1209      542      104      781
    1211        2      104      542     1209     1160
    1212        2      104      542     1209     1210
    1213        2      513      542     1209     1160
    1214        2      513      542     1209     1210
    1215        1      575      544      564      514
    1216        1      575      544      564      563
    1217        2      516      545      563      515
    1218        2      516      545      563      564
    1219        2      611      545      563      515
    1220        2      611      545      563      564
    1221        2      516      545      611      594
    1222        2      516      545      611      639
    1223        2      563      545      611      594
    1224        2      563      545      611      639
    1225        1      574      547     1206     1153
    1226        1      574      547     1206     1205
    1227        2      507      548       26       21
    1228        2      507      548       26       65
    1229        2      557      548       26       21
    1230        2      557      548       26       65
    1231        2       26      548      557      558
    1232        2       26      548      557     1802
    1233        2      507      548      557      558
    1234        2      507      548      557     1802
    1235        1      576      550      560      508
    1236        1      576      550      560      559
    1237        2      510      551      559      509
    1238        2      510      551      559      560
    1239        2      533      551      559      509
    1240        2      533      551      559      560
    1241        3      548      557      558      505
    1242        3      548      557      558     1843
    1243        3     1802      557      558      505
    1244        3     1802      557      558     1843
    1245        3      509      559      560      508
    1246        3      509      559      560      550
    1247        3      551      559      560      508
    1248        3      551      559      560      550
    1249        3      512      561      562      541
    1250        3      512      561      562     1807
    1251        3     1838      561      562      541
    1252        3     1838      561      562     1807
    1253        3      515      563      564      514
    1254        3      515      563      564      544
    1255        3      545      563      564      514
    1256        3      545      563      564      544
    1257        3      518      565      566      535
    1258        3      518      565      566     1813
    1259        3     1832      565      566      535
    1260        3     1832      565      566     1813
    1261        3      521      567      568      520
    1262        3      521      567      568      538
    1263        3      539      567      568      520
    1264        3      539      567      568      538
    1265        3      530      569      570      523
    1266        3      530      569      570     1825
    1267        3     1820      569      570      523
    1268        3     1820      569      570     1825
    1269        3      527      571      572      526
    1270        3      527      571      572      532
    1271        3      533      571      572      526
    1272        3      533      571      572      532
    1273        1      645      577      630      629
    1274        1      645      577      630     1915
    1275        2      621      578       92       99
    1276        2      621      578       92      785
    1277        2     1277      578       92       99
    1278        2     1277      578       92      785
    1279        2       92      578     1277     1268
    1280        2       92      578     1277     1278
    1281        2      621      578     1277     1268
    1282        2      621      578     1277     1278
    1283        1      647      580      632      622
    1284        1      647      580      632      631
    1285        2      624      581      599      606
    1286        2      624      581      599      643
    1287        2      631      581      599      606
    1288        2      631      581      599      643
    1289        2      599      581      631      623
    1290        2      599      581      631      632
    1291        2      624      581      631      623
    1292        2      624      581      631      632
    1293        1      646      583     1282     1261
    1294        1      646      583     1282     1281
    1295        2      615      584      158      177
    1296        2      615      584      158      205
    1297        2      633      584      158      177
    1298        2      633      584      158      205
    1299        2      158      584      633      634
    1300        2      158      584      633     1910
    1301        2      615      584      633      634
    1302        2      615      584      633     1910
    1303        1      648      586      636      616
    1304        1      648      586      636      635
    1305        2      618      587      449      468
    1306        2      618      587      449      495
    1307        2      635      587      449      468
    1308        2      635      587      449      495
    1309        2      449      587      635      617
    1310        2      449      587      635      636
    1311        2      618      587      635      617
    1312        2      618      587      635      636
    1313        1      647      589     1286     1255
    1314        1      647      589     1286     1285
    1315        2      368      590      637      638
    1316        2      368      590      637     1904
    1317        2      609      590      637      638
    1318        2      609      590      637     1904
    1319        1      645      592      640      610
    1320        1      645      592      640      639
    1321        2      515      593      639      611
    1322        2      515      593      639      640
    1323        2      612      593      639      611
    1324        2      612      593      639      640
    1325        1      648      595      642      641
    1326        1      648      595      642     1897
    1327        2      603      596      218      261
    1328        2      603      596      218      917
    1329        2     1289      596      218      261
    1330        2     1289      596      218      917
    1331        2      218      596     1289     1250
    1332        2      218      596     1289     1290
    1333        2      603      596     1289     1250
    1334        2      603      596     1289     1290
    1335        1      646      598      644      604
    1336        1      646      598      644      643
    1337        2      581      599      643      605
    1338        2      581      599      643      644
    1339        2      606      599      643      605
    1340        2      606      599      643      644
    1341        1      647      601     1290     1243
    1342        1      647      601     1290     1289
    1343        2      597      602      260      219
    1344        2      597      602      260      269
    1345        2      641      602      260      219
    1346        2      641      602      260      269
    1347        2      260      602      641      642
    1348        2      260      602      641     1892
    1349        2      597      602      641      642
    1350        2      597      602      641     1892
    1351        1      645      604      644      598
    1352        1      645      604      644      643
    1353        2      600      605      623      582
    1354        2      600      605      623      631
    1355        2      643      605      623      582
    1356        2      643      605      623      631
    1357        2      600      605      643      599
    1358        2      600      605      643      644
    1359        2      623      605      643      599
    1360        2      623      605      643      644
    1361        1      648      607      638      637
    1362        1      648      607      638     1885
    1363        2      398      608     1285     1238
    1364        2      398      608     1285     1286
    1365        2      591      608     1285     1238
    1366        2      591      608     1285     1286
    1367        1      646      610      640      592
    1368        1      646      610      640      639
    1369        2      545      611      639      593
    1370        2      545      611      639      640
    1371        2      594      611      639      593
    1372        2      594      611      639      640
    1373        1      645      613      634      633
    1374        1      645      613      634     1879
    1375        2      585      614      176      159
    1376        2      585      614      176      853
    1377        2     1281      614      176      159
    1378        2     1281      614      176      853
    1379        2      176      614     1281     1232
    1380        2      176      614     1281     1282
    1381        2      585      614     1281     1232
    1382        2      585      614     1281     1282
    1383        1      647      616      636      586
    1384        1      647      616      636      635
    1385        2      588      617      467      450
    1386        2      588      617      467      495
    1387        2      635      617      467      450
    1388        2      635      617      467      495
    1389        2      467      617      635      587
    1390        2      467      617      635      636
    1391        2      588      617      635      587
    1392        2      588      617      635      636
    1393        1      646      619     1278     1225
    1394        1      646      619     1278     1277
    1395        2      579      620       98       93
    1396        2      579      620       98      137
    1397        2      629      620       98       93
    1398        2      629      620       98      137
    1399        2       98      620      629      630
    1400        2       98      620      629     1874
    1401        2      579      620      629      630
    1402        2      579      620      629     1874
    1403        1      648      622      632      580
    1404        1      648      622      632      631
    1405        2      582      623      631      581
    1406        2      582      623      631      632
    1407        2      605      623      631      581
    1408        2      605      623      631      632
    1409        3      620      629      630      577
    1410        3      620      629      630     1915
    1411        3     1874      629      630      577
    1412        3     1874      629      630     1915
    1413        3      581      631      632      580
    1414        3      581      631      632      622
    1415        3      623      631      632      580
    1416        3      623      631      632      622
    1417        3      584      633      634      613
    1418        3      584      633      634     1879
    1419        3     1910      633      634      613
    1420        3     1910      633      634     1879
    1421        3      587      635      636      586
    1422        3      587      635      636      616
    1423        3      617      635      636      586
    1424        3      617      635      636      616
    1425        3      590      637      638      607
    1426        3      590      637      638     1885
    1427        3     1904      637      638      607
    1428        3     1904      637      638     1885
    1429        3      593      639      640      592
    1430        3      593      639      640      610
    1431        3      611      639      640      592
    1432        3      611      639      640      610
    1433        3      602      641      642      595
    1434        3      602      641      642     1897
    1435        3     1892      641      642      595
    1436        3     1892      641      642     1897
    1437        3      599      643      644      598
    1438        3      599      643      644      604
    1439        3      605      643      644      598
    1440        3      605      643      644      604
    1441        1      717      649      702       43
    1442        1      717      649      702      701
    1443        2      693      650     1349     1340
    1444        2      693      650     1349     1350
    1445        2     1028      650     1349     1340
    1446        2     1028      650     1349     1350
    1447        1      719      652      704      694
    1448        1      719      652      704      703
    1449        2      696      653      671      678
    1450        2      696      653      671      715
    1451        2      703      653      671      678
    1452        2      703      653      671      715
    1453        2      671      653      703      695
    1454        2      671      653      703      704
    1455        2      696      653      703      695
    1456        2      696      653      703      704
    1457        1      718      655     1354     1333
    1458        1      718      655     1354     1353
    1459        2      687      656      705       38
    1460        2      687      656      705      706
    1461        2      878      656      705       38
    1462        2      878      656      705      706
    1463        2      687      656      878      897
    1464        2      687      656      878      925
    1465        2      705      656      878      897
    1466        2      705      656      878      925
    1467        1      720      658      708      688
    1468        1      720      658      708      707
    1469        2      690      659      707      689
    1470        2      690      659      707      708
    1471        2      737      659      707      689
    1472        2      737      659      707      708
    1473        2      690      659      737      756
    1474        2      690      659      737      783
    1475        2      707      659      737      756
    1476        2      707      659      737      783
    1477        1      719      661     1358     1327
    1478        1      719      661     1358     1357
    1479        2      681      662      709       32
    1480        2      681      662      709      710
    1481        2     1088      662      709       32
    1482        2     1088      662      709      710
    1483        1      717      664      712      682
    1484        1      717      664      712      711
    1485        2      684      665      711      683
    1486        2      684      665      711      712
    1487        2      803      665      711      683
    1488        2      803      665      711      712
    1489        1      720      667      714       25
    1490        1      720      667      714      713
    1491        2      675      668     1361     1322
    1492        2      675      668     1361     1362
    1493        2     1154      668     1361     1322
    1494        2     1154      668     1361     1362
    1495        1      718      670      716      676
    1496        1      718      670      716      715
    1497        2      653      671      715      677
    1498        2      653      671      715      716
    1499        2      678      671      715      677
    1500        2      678      671      715      716
    1501        1      719      673     1362     1315
    1502        1      719      673     1362     1361
    1503        2      669      674      713       20
    1504        2      669      674      713      714
    1505        2     1196      674      713       20
    1506        2     1196      674      713      714
    1507        1      717      676      716      670
    1508        1      717      676      716      715
    1509        2      672      677      695      654
    1510        2      672      677      695      703
    1511        2      715      677      695      654
    1512        2      715      677      695      703
    1513        2      672      677      715      671
    1514        2      672      677      715      716
    1515        2      695      677      715      671
    1516        2      695      677      715      716
    1517        1      720      679      710       13
    1518        1      720      679      710      709
    1519        2      663      680     1357     1310
    1520        2      663      680     1357     1358
    1521        2     1118      680     1357     1310
    1522        2     1118      680     1357     1358
    1523        1      718      682      712      664
    1524        1      718      682      712      711
    1525        2      666      683      711      665
    1526        2      666      683      711      712
    1527        2      833      683      711      665
    1528        2      833      683      711      712
    1529        1      717      685      706        7
    1530        1      717      685      706      705
    1531        2      657      686      896      879
    1532        2      657      686      896     1573
    1533        2     1353      686      896      879
    1534        2     1353      686      896     1573
    1535        2      657      686     1353     1304
    1536        2      657      686     1353     1354
    1537        2      896      686     1353     1304
    1538        2      896      686     1353     1354
    1539        1      719      688      708      658
    1540        1      719      688      708      707
    1541        2      660      689      707      659
    1542        2      660      689      707      708
    1543        2      755      689      707      659
    1544        2      755      689      707      708
    1545        2      660      689      755      738
    1546        2      660      689      755      783
    1547        2      707      689      755      738
    1548        2      707      689      755      783
    1549        1      718      691     1350     1297
    1550        1      718      691     1350     1349
    1551        2      651      692      701        2
    1552        2      651      692      701      702
    1553        2     1034      692      701        2
    1554        2     1034      692      701      702
    1555        1      720      694      704      652
    1556        1      720      694      704      703
    1557        2      654      695      703      653
    1558        2      654      695      703      704
    1559        2      677      695      703      653
    1560        2      677      695      703      704
    1561        3        2      701      702       43
    1562        3        2      701      702      649
    1563        3      692      701      702       43
    1564        3      692      701      702      649
    1565        3      653      703      704      652
    1566        3      653      703      704      694
    1567        3      695      703      704      652
    1568        3      695      703      704      694
    1569        3       38      705      706        7
    1570        3       38      705      706      685
    1571        3      656      705      706        7
    1572        3      656      705      706      685
    1573        3      659      707      708      658
    1574        3      659      707      708      688
    1575        3      689      707      708      658
    1576        3      689      707      708      688
    1577        3       32      709      710       13
    1578        3       32      709      710      679
    1579        3      662      709      710       13
    1580        3      662      709      710      679
    1581        3      665      711      712      664
    1582        3      665      711      712      682
    1583        3      683      711      712      664
    1584        3      683      711      712      682
    1585        3       20      713      714       25
    1586        3       20      713      714      667
    1587        3      674      713      714       25
    1588        3      674      713      714      667
    1589        3      671      715      716      670
    1590        3      671      715      716      676
    1591        3      677      715      716      670
    1592        3      677      715      716      676
    1593        1      789      721      774      115
    1594        1      789      721      774      773
    1595        2      765      722      884      891
    1596        2      765      722      884     1577
    1597        2     1421      722      884      891
    1598        2     1421      722      884     1577
    1599        2      765      722     1421     1412
    1600        2      765      722     1421     1422
    1601        2      884      722     1421     1412
    1602        2      884      722     1421     1422
    1603        1      791      724      776      766
    1604        1      791      724      776      775
    1605        2      768      725      743      750
    1606        2      768      725      743      787
    1607        2      775      725      743      750
    1608        2      775      725      743      787
    1609        2      743      725      775      767
    1610        2      743      725      775      776
    1611        2      768      725      775      767
    1612        2      768      725      775      776
    1613        1      790      727     1426     1405
    1614        1      790      727     1426     1425
    1615        2      759      728      777      110
    1616        2      759      728      777      778
    1617        2      950      728      777      110
    1618        2      950      728      777      778
    1619        2      759      728      950      969
    1620        2      759      728      950      997
    1621        2      777      728      950      969
    1622        2      777      728      950      997
    1623        1      792      730      780      760
    1624        1      792      730      780      779
    1625        2      762      731      779      761
    1626        2      762      731      779      780
    1627        2      809      731      779      761
    1628        2      809      731      779      780
    1629        2      762      731      809      828
    1630        2      762      731      809      855
    1631        2      779      731      809      828
    1632        2      779      731      809      855
    1633        1      791      733     1430     1399
    1634        1      791      733     1430     1429
    1635        2      753      734      781      104
    1636        2      753      734      781      782
    1637        2     1160      734      781      104
    1638        2     1160      734      781      782
    1639        1      789      736      784      754
    1640        1      789      736      784      783
    1641        2      659      737      783      755
    1642        2      659      737      783      784
    1643        2      756      737      783      755
    1644        2      756      737      783      784
    1645        1      792      739      786       97
    1646        1      792      739      786      785
    1647        2      747      740     1433     1394
    1648        2      747      740     1433     1434
    1649        2     1226      740     1433     1394
    1650        2     1226      740     1433     1434
    1651        1      790      742      788      748
    1652        1      790      742      788      787
    1653        2      725      743      787      749
    1654        2      725      743      787      788
    1655        2      750      743      787      749
    1656        2      750      743      787      788
    1657        1      791      745     1434     1387
    1658        1      791      745     1434     1433
    1659        2      741      746      785       92
    1660        2      741      746      785      786
    1661        2     1268      746      785       92
    1662        2     1268      746      785      786
    1663        1      789      748      788      742
    1664        1      789      748      788      787
    1665        2      744      749      767      726
    1666        2      744      749      767      775
    1667        2      787      749      767      726
    1668        2      787      749      767      775
    1669        2      744      749      787      743
    1670        2      744      749      787      788
    1671        2      767      749      787      743
    1672        2      767      749      787      788
    1673        1      792      751      782       85
    1674        1      792      751      782      781
    1675        2      735      752     1429     1382
    1676        2      735      752     1429     1430
    1677        2     1190      752     1429     1382
    1678        2     1190      752     1429     1430
    1679        1      790      754      784      736
    1680        1      790      754      784      783
    1681        2      689      755      783      737
    1682        2      689      755      783      784
    1683        2      738      755      783      737
    1684        2      738      755      783      784
    1685        1      789      757      778       79
    1686        1      789      757      778      777
    1687        2      729      758      968      951
    1688        2      729      758      968     1645
    1689        2     1425      758      968      951
    1690        2     1425      758      968     1645
    1691        2      729      758     1425     1376
    1692        2      729      758     1425     1426
    1693        2      968      758     1425     1376
    1694        2      968      758     1425     1426
    1695        1      791      760      780      730
    1696        1      791      760      780      779
    1697        2      732      761      779      731
    1698        2      732      761      779      780
    1699        2      827      761      779      731
    1700        2      827      761      779      780
    1701        2      732      761      827      810
    1702        2      732      761      827      855
    1703        2      779      761      827      810
    1704        2      779      761      827      855
    1705        1      790      763     1422     1369
    1706        1      790      763     1422     1421
    1707        2      723      764      773       74
    1708        2      723      764      773      774
    1709        2      890      764      773       74
    1710        2      890      764      773      774
    1711        2      723      764      890      885
    1712        2      723      764      890      929
    1713        2      773      764      890      885
    1714        2      773      764      890      929
    1715        1      792      766      776      724
    1716        1      792      766      776      775
    1717        2      726      767      775      725
    1718        2      726      767      775      776
    1719        2      749      767      775      725
    1720        2      749      767      775      776
    1721        3       74      773      774      115
    1722        3       74      773      774      721
    1723        3      764      773      774      115
    1724        3      764      773      774      721
    1725        3      725      775      776      724
    1726        3      725      775      776      766
    1727        3      767      775      776      724
    1728        3      767      775      776      766
    1729        3      110      777      778       79
    1730        3      110      777      778      757
    1731        3      728      777      778       79
    1732        3      728      777      778      757
    1733        3      731      779      780      730
    1734        3      731      779      780      760
    1735        3      761      779      780      730
    1736        3      761      779      780      760
    1737        3      104      781      782       85
    1738        3      104      781      782      751
    1739        3      734      781      782       85
    1740        3      734      781      782      751
    1741        3      737      783      784      736
    1742        3      737      783      784      754
    1743        3      755      783      784      736
    1744        3      755      783      784      754
    1745        3       92      785      786       97
    1746        3       92      785      786      739
    1747        3      746      785      786       97
    1748        3      746      785      786      739
    1749        3      743      787      788      742
    1750        3      743      787      788      748
    1751        3      749      787      788      742
    1752        3      749      787      788      748
    1753        1      861      793      846      187
    1754        1      861      793      846      845
    1755        2      837      794      956      963
    1756        2      837      794      956     1649
    1757        2     1493      794      956      963
    1758        2     1493      794      956     1649
    1759        2      837      794     1493     1484
    1760        2      837      794     1493     1494
    1761        2      956      794     1493     1484
    1762        2      956      794     1493     1494
    1763        1      863      796      848      838
    1764        1      863      796      848      847
    1765        2      840      797      815      822
    1766        2      840      797      815      859
    1767        2      847      797      815      822
    1768        2      847      797      815      859
    1769        2      815      797      847      839
    1770        2      815      797      847      848
    1771        2      840      797      847      839
    1772        2      840      797      847      848
    1773        1      862      799     1498     1477
    1774        1      862      799     1498     1497
    1775        2      831      800      849      182
    1776        2      831      800      849      850
    1777        2     1022      800      849      182
    1778        2     1022      800      849      850
    1779        2      831      800     1022     1041
    1780        2      831      800     1022     1069
    1781        2      849      800     1022     1041
    1782        2      849      800     1022     1069
    1783        1      864      802      852      832
    1784        1      864      802      852      851
    1785        2      834      803      665      684
    1786        2      834      803      665      711
    1787        2      851      803      665      684
    1788        2      851      803      665      711
    1789        2      665      803      851      833
    1790        2      665      803      851      852
    1791        2      834      803      851      833
    1792        2      834      803      851      852
    1793        1      863      805     1502     1471
    1794        1      863      805     1502     1501
    1795        2      825      806      853      176
    1796        2      825      806      853      854
    1797        2     1232      806      853      176
    1798        2     1232      806      853      854
    1799        1      861      808      856      826
    1800        1      861      808      856      855
    1801        2      731      809      855      827
    1802        2      731      809      855      856
    1803        2      828      809      855      827
    1804        2      828      809      855      856
    1805        1      864      811      858      169
    1806        1      864      811      858      857
    1807        2      819      812     1505     1466
    1808        2      819      812     1505     1506
    1809        2     1082      812     1505     1466
    1810        2     1082      812     1505     1506
    1811        1      862      814      860      820
    1812        1      862      814      860      859
    1813        2      797      815      859      821
    1814        2      797      815      859      860
    1815        2      822      815      859      821
    1816        2      822      815      859      860
    1817        1      863      817     1506     1459
    1818        1      863      817     1506     1505
    1819        2      813      818      857      164
    1820        2      813      818      857      858
    1821        2     1124      818      857      164
    1822        2     1124      818      857      858
    1823        1      861      820      860      814
    1824        1      861      820      860      859
    1825        2      816      821      839      798
    1826        2      816      821      839      847
    1827        2      859      821      839      798
    1828        2      859      821      839      847
    1829        2      816      821      859      815
    1830        2      816      821      859      860
    1831        2      839      821      859      815
    1832        2      839      821      859      860
    1833        1      864      823      854      157
    1834        1      864      823      854      853
    1835        2      807      824     1501     1454
    1836        2      807      824     1501     1502
    1837        2     1262      824     1501     1454
    1838        2     1262      824     1501     1502
    1839        1      862      826      856      808
    1840        1      862      826      856      855
    1841        2      761      827      855      809
    1842        2      761      827      855      856
    1843        2      810      827      855      809
    1844        2      810      827      855      856
    1845        1      861      829      850      151
    1846        1      861      829      850      849
    1847        2      801      830     1040     1023
    1848        2      801      830     1040     1717
    1849        2     1497      830     1040     1023
    1850        2     1497      830     1040     1717
    1851        2      801      830     1497     1448
    1852        2      801      830     1497     1498
    1853        2     1040      830     1497     1448
    1854        2     1040      830     1497     1498
    1855        1      863      832      852      802
    1856        1      863      832      852      851
    1857        2      804      833      683      666
    1858        2      804      833      683      711
    1859        2      851      833      683      666
    1860        2      851      833      683      711
    1861        2      683      833      851      803
    1862        2      683      833      851      852
    1863        2      804      833      851      803
    1864        2      804      833      851      852
    1865        1      862      835     1494     1441
    1866        1      862      835     1494     1493
    1867        2      795      836      845      146
    1868        2      795      836      845      846
    1869        2      962      836      845      146
    1870        2      962      836      845      846
    1871        2      795      836      962      957
    1872        2      795      836      962     1001
    1873        2      845      836      962      957
    1874        2      845      836      962     1001
    1875        1      864      838      848      796
    1876        1      864      838      848      847
    1877        2      798      839      847      797
    1878        2      798      839      847      848
    1879        2      821      839      847      797
    1880        2      821      839      847      848
    1881        3      146      845      846      187
    1882        3      146      845      846      793
    1883        3      836      845      846      187
    1884        3      836      845      846      793
    1885        3      797      847      848      796
    1886        3      797      847      848      838
    1887        3      839      847      848      796
    1888        3      839      847      848      838
    1889        3      182      849      850      151
    1890        3      182      849      850      829
    1891        3      800      849      850      151
    1892        3      800      849      850      829
    1893        3      803      851      852      802
    1894        3      803      851      852      832
    1895        3      833      851      852      802
    1896        3      833      851      852      832
    1897        3      176      853      854      157
    1898        3      176      853      854      823
    1899        3      806      853      854      157
    1900        3      806      853      854      823
    1901        3      809      855      856      808
    1902        3      809      855      856      826
    1903        3      827      855      856      808
    1904        3      827      855      856      826
    1905        3      164      857      858      169
    1906        3      164      857      858      811
    1907        3      818      857      858      169
    1908        3      818      857      858      811
    1909        3      815      859      860      814
    1910        3      815      859      860      820
    1911        3      821      859      860      814
    1912        3      821      859      860      820
    1913        1      933      865      918      259
    1914        1      933      865      918      917
    1915        2      909      866     1565     1556
    1916        2      909      866     1565     1566
    1917        2     1244      866     1565     1556
    1918        2     1244      866     1565     1566
    1919        1      935      868      920      910
    1920        1      935      868      920      919
    1921        2      912      869      887      894
    1922        2      912      869      887      931
    1923        2      919      869      887      894
    1924        2      919      869      887      931
    1925        2      887      869      919      911
    1926        2      887      869      919      920
    1927        2      912      869      919      911
    1928        2      912      869      919      920
    1929        1      934      871     1570     1549
    1930        1      934      871     1570     1569
    1931        2      903      872      921      254
    1932        2      903      872      921      922
    1933        2     1094      872      921      254
    1934        2     1094      872      921      922
    1935        2      903      872     1094     1113
    1936        2      903      872     1094     1141
    1937        2      921      872     1094     1113
    1938        2      921      872     1094     1141
    1939        1      936      874      924      904
    1940        1      936      874      924      923
    1941        2      906      875      923      905
    1942        2      906      875      923      924
    1943        2      953      875      923      905
    1944        2      953      875      923      924
    1945        2      906      875      953      972
    1946        2      906      875      953      999
    1947        2      923      875      953      972
    1948        2      923      875      953      999
    1949        1      935      877     1574     1543
    1950        1      935      877     1574     1573
    1951        2      656      878      925      248
    1952        2      656      878      925      926
    1953        2      897      878      925      248
    1954        2      897      878      925      926
    1955        1      933      880      928      898
    1956        1      933      880      928      927
    1957        2      900      881      927      899
    1958        2      900      881      927      928
    1959        2     1019      881      927      899
    1960        2     1019      881      927      928
    1961        1      936      883      930      241
    1962        1      936      883      930      929
    1963        2      722      884     1577     1538
    1964        2      722      884     1577     1578
    1965        2      891      884     1577     1538
    1966        2      891      884     1577     1578
    1967        1      934      886      932      892
    1968        1      934      886      932      931
    1969        2      869      887      931      893
    1970        2      869      887      931      932
    1971        2      894      887      931      893
    1972        2      894      887      931      932
    1973        1      935      889     1578     1531
    1974        1      935      889     1578     1577
    1975        2      764      890      929      236
    1976        2      764      890      929      930
    1977        2      885      890      929      236
    1978        2      885      890      929      930
    1979        1      933      892      932      886
    1980        1      933      892      932      931
    1981        2      888      893      911      870
    1982        2      888      893      911      919
    1983        2      931      893      911      870
    1984        2      931      893      911      919
    1985        2      888      893      931      887
    1986        2      888      893      931      932
    1987        2      911      893      931      887
    1988        2      911      893      931      932
    1989        1      936      895      926      229
    1990        1      936      895      926      925
    1991        2      686      896     1573     1526
    1992        2      686      896     1573     1574
    1993        2      879      896     1573     1526
    1994        2      879      896     1573     1574
    1995        1      934      898      928      880
    1996        1      934      898      928      927
    1997        2      882      899      927      881
    1998        2      882      899      927      928
    1999        2     1049      899      927      881
    2000        2     1049      899      927      928
    2001        1      933      901      922      223
    2002        1      933      901      922      921
    2003        2      873      902     1112     1095
    2004        2      873      902     1112     1789
    2005        2     1569      902     1112     1095
    2006        2     1569      902     1112     1789
    2007        2      873      902     1569     1520
    2008        2      873      902     1569     1570
    2009        2     1112      902     1569     1520
    2010        2     1112      902     1569     1570
    2011        1      935      904      924      874
    2012        1      935      904      924      923
    2013        2      876      905      923      875
    2014        2      876      905      923      924
    2015        2      971      905      923      875
    2016        2      971      905      923      924
    2017        2      876      905      971      954
    2018        2      876      905      971      999
    2019        2      923      905      971      954
    2020        2      923      905      971      999
    2021        1      934      907     1566     1513
    2022        1      934      907     1566     1565
    2023        2      867      908      917      218
    2024        2      867      908      917      918
    2025        2     1250      908      917      218
    2026        2     1250      908      917      918
    2027        1      936      910      920      868
    2028        1      936      910      920      919
    2029        2      870      911      919      869
    2030        2      870      911      919      920
    2031        2      893      911      919      869
    2032        2      893      911      919      920
    2033        3      218      917      918      259
    2034        3      218      917      918      865
    2035        3      908      917      918      259
    2036        3      908      917      918      865
    2037        3      869      919      920      868
    2038        3      869      919      920      910
    2039        3      911      919      920      868
    2040        3      911      919      920      910
    2041        3      254      921      922      223
    2042        3      254      921      922      901
    2043        3      872      921      922      223
    2044        3      872      921      922      901
    2045        3      875      923      924      874
    2046        3      875      923      924      904
    2047        3      905      923      924      874
    2048        3      905      923      924      904
    2049        3      248      925      926      229
    2050        3      248      925      926      895
    2051        3      878      925      926      229
    2052        3      878      925      926      895
    2053        3      881      927      928      880
    2054        3      881      927      928      898
    2055        3      899      927      928      880
    2056        3      899      927      928      898
    2057        3      236      929      930      241
    2058        3      236      929      930      883
    2059        3      890      929      930      241
    2060        3      890      929      930      883
    2061        3      887      931      932      886
    2062        3      887      931      932      892
    2063        3      893      931      932      886
    2064        3      893      931      932      892
    2065        1     1005      937      990      331
    2066        1     1005      937      990      989
    2067        2      981      938     1100     1107
    2068        2      981      938     1100     1793
    2069        2     1637      938     1100     1107
    2070        2     1637      938     1100     1793
    2071        2      981      938     1637     1628
    2072        2      981      938     1637     1638
    2073        2     1100      938     1637     1628
    2074        2     1100      938     1637     1638
    2075        1     1007      940      992      982
    2076        1     1007      940      992      991
    2077        2      984      941      959      966
    2078        2      984      941      959     1003
    2079        2      991      941      959      966
    2080        2      991      941      959     1003
    2081        2      959      941      991      983
    2082        2      959      941      991      992
    2083        2      984      941      991      983
    2084        2      984      941      991      992
    2085        1     1006      943     1642     1621
    2086        1     1006      943     1642     1641
    2087        2      975      944      993      326
    2088        2      975      944      993      994
    2089        2     1166      944      993      326
    2090        2     1166      944      993      994
    2091        2      975      944     1166     1185
    2092        2      975      944     1166     1213
    2093        2      993      944     1166     1185
    2094        2      993      944     1166     1213
    2095        1     1008      946      996      976
    2096        1     1008      946      996      995
    2097        2      978      947      995      977
    2098        2      978      947      995      996
    2099        2     1025      947      995      977
    2100        2     1025      947      995      996
    2101        2      978      947     1025     1044
    2102        2      978      947     1025     1071
    2103        2      995      947     1025     1044
    2104        2      995      947     1025     1071
    2105        1     1007      949     1646     1615
    2106        1     1007      949     1646     1645
    2107        2      728      950      997      320
    2108        2      728      950      997      998
    2109        2      969      950      997      320
    2110        2      969      950      997      998
    2111        1     1005      952     1000      970
    2112        1     1005      952     1000      999
    2113        2      875      953      999      971
    2114        2      875      953      999     1000
    2115        2      972      953      999      971
    2116        2      972      953      999     1000
    2117        1     1008      955     1002      313
    2118        1     1008      955     1002     1001
    2119        2      794      956     1649     1610
    2120        2      794      956     1649     1650
    2121        2      963      956     1649     1610
    2122        2      963      956     1649     1650
    2123        1     1006      958     1004      964
    2124        1     1006      958     1004     1003
    2125        2      941      959     1003      965
    2126        2      941      959     1003     1004
    2127        2      966      959     1003      965
    2128        2      966      959     1003     1004
    2129        1     1007      961     1650     1603
    2130        1     1007      961     1650     1649
    2131        2      836      962     1001      308
    2132        2      836      962     1001     1002
    2133        2      957      962     1001      308
    2134        2      957      962     1001     1002
    2135        1     1005      964     1004      958
    2136        1     1005      964     1004     1003
    2137        2      960      965      983      942
    2138        2      960      965      983      991
    2139        2     1003      965      983      942
    2140        2     1003      965      983      991
    2141        2      960      965     1003      959
    2142        2      960      965     1003     1004
    2143        2      983      965     1003      959
    2144        2      983      965     1003     1004
    2145        1     1008      967      998      301
    2146        1     1008      967      998      997
    2147        2      758      968     1645     1598
    2148        2      758      968     1645     1646
    2149        2      951      968     1645     1598
    2150        2      951      968     1645     1646
    2151        1     1006      970     1000      952
    2152        1     1006      970     1000      999
    2153        2      905      971      999      953
    2154        2      905      971      999     1000
    2155        2      954      971      999      953
    2156        2      954      971      999     1000
    2157        1     1005      973      994      295
    2158        1     1005      973      994      993
    2159        2      945      974     1184     1167
    2160        2      945      974     1184     1861
    2161        2     1641      974     1184     1167
    2162        2     1641      974     1184     1861
    2163        2      945      974     1641     1592
    2164        2      945      974     1641     1642
    2165        2     1184      974     1641     1592
    2166        2     1184      974     1641     1642
    2167        1     1007      976      996      946
    2168        1     1007      976      996      995
    2169        2      948      977      995      947
    2170        2      948      977      995      996
    2171        2     1043      977      995      947
    2172        2     1043      977      995      996
    2173        2      948      977     1043     1026
    2174        2      948      977     1043     1071
    2175        2      995      977     1043     1026
    2176        2      995      977     1043     1071
    2177        1     1006      979     1638     1585
    2178        1     1006      979     1638     1637
    2179        2      939      980      989      290
    2180        2      939      980      989      990
    2181        2     1106      980      989      290
    2182        2     1106      980      989      990
    2183        2      939      980     1106     1101
    2184        2      939      980     1106     1145
    2185        2      989      980     1106     1101
    2186        2      989      980     1106     1145
    2187        1     1008      982      992      940
    2188        1     1008      982      992      991
    2189        2      942      983      991      941
    2190        2      942      983      991      992
    2191        2      965      983      991      941
    2192        2      965      983      991      992
    2193        3      290      989      990      331
    2194        3      290      989      990      937
    2195        3      980      989      990      331
    2196        3      980      989      990      937
    2197        3      941      991      992      940
    2198        3      941      991      992      982
    2199        3      983      991      992      940
    2200        3      983      991      992      982
    2201        3      326      993      994      295
    2202        3      326      993      994      973
    2203        3      944      993      994      295
    2204        3      944      993      994      973
    2205        3      947      995      996      946
    2206        3      947      995      996      976
    2207        3      977      995      996      946
    2208        3      977      995      996      976
    2209        3      320      997      998      301
    2210        3      320      997      998      967
    2211        3      950      997      998      301
    2212        3      950      997      998      967
    2213        3      953      999     1000      952
    2214        3      953      999     1000      970
    2215        3      971      999     1000      952
    2216        3      971      999     1000      970
    2217        3      308     1001     1002      313
    2218        3      308     1001     1002      955
    2219        3      962     1001     1002      313
    2220        3      962     1001     1002      955
    2221        3      959     1003     1004      958
    2222        3      959     1003     1004      964
    2223        3      965     1003     1004      958
    2224        3      965     1003     1004      964
    2225        1     1077     1009     1062      403
    2226        1     1077     1009     1062     1061
    2227        2     1053     1010     1172     1179
    2228        2     1053     1010     1172     1865
    2229        2     1709     1010     1172     1179
    2230        2     1709     1010     1172     1865
    2231        2     1053     1010     1709     1700
    2232        2     1053     1010     1709     1710
    2233        2     1172     1010     1709     1700
    2234        2     1172     1010     1709     1710
    2235        1     1079     1012     1064     1054
    2236        1     1079     1012     1064     1063
    2237        2     1056     1013     1031     1038
    2238        2     1056     1013     1031     1075
    2239        2     1063     1013     1031     1038
    2240        2     1063     1013     1031     1075
    2241        2     1031     1013     1063     1055
    2242        2     1031     1013     1063     1064
    2243        2     1056     1013     1063     1055
    2244        2     1056     1013     1063     1064
    2245        1     1078     1015     1714     1693
    2246        1     1078     1015     1714     1713
    2247        2     1047     1016     1065      398
    2248        2     1047     1016     1065     1066
    2249        2     1238     1016     1065      398
    2250        2     1238     1016     1065     1066
    2251        2     1047     1016     1238     1257
    2252        2     1047     1016     1238     1285
    2253        2     1065     1016     1238     1257
    2254        2     1065     1016     1238     1285
    2255        1     1080     1018     1068     1048
    2256        1     1080     1018     1068     1067
    2257        2     1050     1019      881      900
    2258        2     1050     1019      881      927
    2259        2     1067     1019      881      900
    2260        2     1067     1019      881      927
    2261        2      881     1019     1067     1049
    2262        2      881     1019     1067     1068
    2263        2     1050     1019     1067     1049
    2264        2     1050     1019     1067     1068
    2265        1     1079     1021     1718     1687
    2266        1     1079     1021     1718     1717
    2267        2      800     1022     1069      392
    2268        2      800     1022     1069     1070
    2269        2     1041     1022     1069      392
    2270        2     1041     1022     1069     1070
    2271        1     1077     1024     1072     1042
    2272        1     1077     1024     1072     1071
    2273        2      947     1025     1071     1043
    2274        2      947     1025     1071     1072
    2275        2     1044     1025     1071     1043
    2276        2     1044     1025     1071     1072
    2277        1     1080     1027     1074      385
    2278        1     1080     1027     1074     1073
    2279        2     1035     1028      650      693
    2280        2     1035     1028      650     1349
    2281        2     1721     1028      650      693
    2282        2     1721     1028      650     1349
    2283        2      650     1028     1721     1682
    2284        2      650     1028     1721     1722
    2285        2     1035     1028     1721     1682
    2286        2     1035     1028     1721     1722
    2287        1     1078     1030     1076     1036
    2288        1     1078     1030     1076     1075
    2289        2     1013     1031     1075     1037
    2290        2     1013     1031     1075     1076
    2291        2     1038     1031     1075     1037
    2292        2     1038     1031     1075     1076
    2293        1     1079     1033     1722     1675
    2294        1     1079     1033     1722     1721
    2295        2     1029     1034      692      651
    2296        2     1029     1034      692      701
    2297        2     1073     1034      692      651
    2298        2     1073     1034      692      701
    2299        2      692     1034     1073      380
    2300        2      692     1034     1073     1074
    2301        2     1029     1034     1073      380
    2302        2     1029     1034     1073     1074
    2303        1     1077     1036     1076     1030
    2304        1     1077     1036     1076     1075
    2305        2     1032     1037     1055     1014
    2306        2     1032     1037     1055     1063
    2307        2     1075     1037     1055     1014
    2308        2     1075     1037     1055     1063
    2309        2     1032     1037     1075     1031
    2310        2     1032     1037     1075     1076
    2311        2     1055     1037     1075     1031
    2312        2     1055     1037     1075     1076
    2313        1     1080     1039     1070      373
    2314        1     1080     1039     1070     1069
    2315        2      830     1040     1717     1670
    2316        2      830     1040     1717     1718
    2317        2     1023     1040     1717     1670
    2318        2     1023     1040     1717     1718
    2319        1     1078     1042     1072     1024
    2320        1     1078     1042     1072     1071
    2321        2      977     1043     1071     1025
    2322        2      977     1043     1071     1072
    2323        2     1026     1043     1071     1025
    2324        2     1026     1043     1071     1072
    2325        1     1077     1045     1066      367
    2326        1     1077     1045     1066     1065
    2327        2     1017     1046     1256     1239
    2328        2     1017     1046     1256     1933
    2329        2     1713     1046     1256     1239
    2330        2     1713     1046     1256     1933
    2331        2     1017     1046     1713     1664
    2332        2     1017     1046     1713     1714
    2333        2     1256     1046     1713     1664
    2334        2     1256     1046     1713     1714
    2335        1     1079     1048     1068     1018
    2336        1     1079     1048     1068     1067
    2337        2     1020     1049      899      882
    2338        2     1020     1049      899      927
    2339        2     1067     1049      899      882
    2340        2     1067     1049      899      927
    2341        2      899     1049     1067     1019
    2342        2      899     1049     1067     1068
    2343        2     1020     1049     1067     1019
    2344        2     1020     1049     1067     1068
    2345        1     1078     1051     1710     1657
    2346        1     1078     1051     1710     1709
    2347        2     1011     1052     1061      362
    2348        2     1011     1052     1061     1062
    2349        2     1178     1052     1061      362
    2350        2     1178     1052     1061     1062
    2351        2     1011     1052     1178     1173
    2352        2     1011     1052     1178     1217
    2353        2     1061     1052     1178     1173
    2354        2     1061     1052     1178     1217
    2355        1     1080     1054     1064     1012
    2356        1     1080     1054     1064     1063
    2357        2     1014     1055     1063     1013
    2358        2     1014     1055     1063     1064
    2359        2     1037     1055     1063     1013
    2360        2     1037     1055     1063     1064
    2361        3      362     1061     1062      403
    2362        3      362     1061     1062     1009
    2363        3     1052     1061     1062      403
    2364        3     1052     1061     1062     1009
    2365        3     1013     1063     1064     1012
    2366        3     1013     1063     1064     1054
    2367        3     1055     1063     1064     1012
    2368        3     1055     1063     1064     1054
    2369        3      398     1065     1066      367
    2370        3      398     1065     1066     1045
    2371        3     1016     1065     1066      367
    2372        3     1016     1065     1066     1045
    2373        3     1019     1067     1068     1018
    2374        3     1019     1067     1068     1048
    2375        3     1049     1067     1068     1018
    2376        3     1049     1067     1068     1048
    2377        3      392     1069     1070      373
    2378        3      392     1069     1070     1039
    2379        3     1022     1069     1070      373
    2380        3     1022     1069     1070     1039
    2381        3     1025     1071     1072     1024
    2382        3     1025     1071     1072     1042
    2383        3     1043     1071     1072     1024
    2384        3     1043     1071     1072     1042
    2385        3      380     1073     1074      385
    2386        3      380     1073     1074     1027
    2387        3     1034     1073     1074      385
    2388        3     1034     1073     1074     1027
    2389        3     1031     1075     1076     1030
    2390        3     1031     1075     1076     1036
    2391        3     1037     1075     1076     1030
    2392        3     1037     1075     1076     1036
    2393        1     1149     1081     1134      475
    2394        1     1149     1081     1134     1133
    2395        2     1125     1082      812      819
    2396        2     1125     1082      812     1505
    2397        2     1781     1082      812      819
    2398        2     1781     1082      812     1505
    2399        2      812     1082     1781     1772
    2400        2      812     1082     1781     1782
    2401        2     1125     1082     1781     1772
    2402        2     1125     1082     1781     1782
    2403        1     1151     1084     1136     1126
    2404        1     1151     1084     1136     1135
    2405        2     1128     1085     1103     1110
    2406        2     1128     1085     1103     1147
    2407        2     1135     1085     1103     1110
    2408        2     1135     1085     1103     1147
    2409        2     1103     1085     1135     1127
    2410        2     1103     1085     1135     1136
    2411        2     1128     1085     1135     1127
    2412        2     1128     1085     1135     1136
    2413        1     1150     1087     1786     1765
    2414        1     1150     1087     1786     1785
    2415        2     1119     1088      662      681
    2416        2     1119     1088      662      709
    2417        2     1137     1088      662      681
    2418        2     1137     1088      662      709
    2419        2      662     1088     1137      470
    2420        2      662     1088     1137     1138
    2421        2     1119     1088     1137      470
    2422        2     1119     1088     1137     1138
    2423        1     1152     1090     1140     1120
    2424        1     1152     1090     1140     1139
    2425        2     1122     1091     1139     1121
    2426        2     1122     1091     1139     1140
    2427        2     1169     1091     1139     1121
    2428        2     1169     1091     1139     1140
    2429        2     1122     1091     1169     1188
    2430        2     1122     1091     1169     1215
    2431        2     1139     1091     1169     1188
    2432        2     1139     1091     1169     1215
    2433        1     1151     1093     1790     1759
    2434        1     1151     1093     1790     1789
    2435        2      872     1094     1141      464
    2436        2      872     1094     1141     1142
    2437        2     1113     1094     1141      464
    2438        2     1113     1094     1141     1142
    2439        1     1149     1096     1144     1114
    2440        1     1149     1096     1144     1143
    2441        2     1116     1097     1143     1115
    2442        2     1116     1097     1143     1144
    2443        2     1235     1097     1143     1115
    2444        2     1235     1097     1143     1144
    2445        1     1152     1099     1146      457
    2446        1     1152     1099     1146     1145
    2447        2      938     1100     1793     1754
    2448        2      938     1100     1793     1794
    2449        2     1107     1100     1793     1754
    2450        2     1107     1100     1793     1794
    2451        1     1150     1102     1148     1108
    2452        1     1150     1102     1148     1147
    2453        2     1085     1103     1147     1109
    2454        2     1085     1103     1147     1148
    2455        2     1110     1103     1147     1109
    2456        2     1110     1103     1147     1148
    2457        1     1151     1105     1794     1747
    2458        1     1151     1105     1794     1793
    2459        2      980     1106     1145      452
    2460        2      980     1106     1145     1146
    2461        2     1101     1106     1145      452
    2462        2     1101     1106     1145     1146
    2463        1     1149     1108     1148     1102
    2464        1     1149     1108     1148     1147
    2465        2     1104     1109     1127     1086
    2466        2     1104     1109     1127     1135
    2467        2     1147     1109     1127     1086
    2468        2     1147     1109     1127     1135
    2469        2     1104     1109     1147     1103
    2470        2     1104     1109     1147     1148
    2471        2     1127     1109     1147     1103
    2472        2     1127     1109     1147     1148
    2473        1     1152     1111     1142      445
    2474        1     1152     1111     1142     1141
    2475        2      902     1112     1789     1742
    2476        2      902     1112     1789     1790
    2477        2     1095     1112     1789     1742
    2478        2     1095     1112     1789     1790
    2479        1     1150     1114     1144     1096
    2480        1     1150     1114     1144     1143
    2481        2     1098     1115     1143     1097
    2482        2     1098     1115     1143     1144
    2483        2     1265     1115     1143     1097
    2484        2     1265     1115     1143     1144
    2485        1     1149     1117     1138      439
    2486        1     1149     1117     1138     1137
    2487        2     1089     1118      680      663
    2488        2     1089     1118      680     1357
    2489        2     1785     1118      680      663
    2490        2     1785     1118      680     1357
    2491        2      680     1118     1785     1736
    2492        2      680     1118     1785     1786
    2493        2     1089     1118     1785     1736
    2494        2     1089     1118     1785     1786
    2495        1     1151     1120     1140     1090
    2496        1     1151     1120     1140     1139
    2497        2     1092     1121     1139     1091
    2498        2     1092     1121     1139     1140
    2499        2     1187     1121     1139     1091
    2500        2     1187     1121     1139     1140
    2501        2     1092     1121     1187     1170
    2502        2     1092     1121     1187     1215
    2503        2     1139     1121     1187     1170
    2504        2     1139     1121     1187     1215
    2505        1     1150     1123     1782     1729
    2506        1     1150     1123     1782     1781
    2507        2     1083     1124      818      813
    2508        2     1083     1124      818      857
    2509        2     1133     1124      818      813
    2510        2     1133     1124      818      857
    2511        2      818     1124     1133      434
    2512        2      818     1124     1133     1134
    2513        2     1083     1124     1133      434
    2514        2     1083     1124     1133     1134
    2515        1     1152     1126     1136     1084
    2516        1     1152     1126     1136     1135
    2517        2     1086     1127     1135     1085
    2518        2     1086     1127     1135     1136
    2519        2     1109     1127     1135     1085
    2520        2     1109     1127     1135     1136
    2521        3      434     1133     1134      475
    2522        3      434     1133     1134     1081
    2523        3     1124     1133     1134      475
    2524        3     1124     1133     1134     1081
    2525        3     1085     1135     1136     1084
    2526        3     1085     1135     1136     1126
    2527        3     1127     1135     1136     1084
    2528        3     1127     1135     1136     1126
    2529        3      470     1137     1138      439
    2530        3      470     1137     1138     1117
    2531        3     1088     1137     1138      439
    2532        3     1088     1137     1138     1117
    2533        3     1091     1139     1140     1090
    2534        3     1091     1139     1140     1120
    2535        3     1121     1139     1140     1090
    2536        3     1121     1139     1140     1120
    2537        3      464     1141     1142      445
    2538        3      464     1141     1142     1111
    2539        3     1094     1141     1142      445
    2540        3     1094     1141     1142     1111
    2541        3     1097     1143     1144     1096
    2542        3     1097     1143     1144     1114
    2543        3     1115     1143     1144     1096
    2544        3     1115     1143     1144     1114
    2545        3      452     1145     1146      457
    2546        3      452     1145     1146     1099
    2547        3     1106     1145     1146      457
    2548        3     1106     1145     1146     1099
    2549        3     1103     1147     1148     1102
    2550        3     1103     1147     1148     1108
    2551        3     1109     1147     1148     1102
    2552        3     1109     1147     1148     1108
    2553        1     1221     1153     1206      547
    2554        1     1221     1153     1206     1205
    2555        2     1197     1154      668      675
    2556        2     1197     1154      668     1361
    2557        2     1853     1154      668      675
    2558        2     1853     1154      668     1361
    2559        2      668     1154     1853     1844
    2560        2      668     1154     1853     1854
    2561        2     1197     1154     1853     1844
    2562        2     1197     1154     1853     1854
    2563        1     1223     1156     1208     1198
    2564        1     1223     1156     1208     1207
    2565        2     1200     1157     1175     1182
    2566        2     1200     1157     1175     1219
    2567        2     1207     1157     1175     1182
    2568        2     1207     1157     1175     1219
    2569        2     1175     1157     1207     1199
    2570        2     1175     1157     1207     1208
    2571        2     1200     1157     1207     1199
    2572        2     1200     1157     1207     1208
    2573        1     1222     1159     1858     1837
    2574        1     1222     1159     1858     1857
    2575        2     1191     1160      734      753
    2576        2     1191     1160      734      781
    2577        2     1209     1160      734      753
    2578        2     1209     1160      734      781
    2579        2      734     1160     1209      542
    2580        2      734     1160     1209     1210
    2581        2     1191     1160     1209      542
    2582        2     1191     1160     1209     1210
    2583        1     1224     1162     1212     1192
    2584        1     1224     1162     1212     1211
    2585        2     1194     1163     1211     1193
    2586        2     1194     1163     1211     1212
    2587        2     1241     1163     1211     1193
    2588        2     1241     1163     1211     1212
    2589        2     1194     1163     1241     1260
    2590        2     1194     1163     1241     1287
    2591        2     1211     1163     1241     1260
    2592        2     1211     1163     1241     1287
    2593        1     1223     1165     1862     1831
    2594        1     1223     1165     1862     1861
    2595        2      944     1166     1213      536
    2596        2      944     1166     1213     1214
    2597        2     1185     1166     1213      536
    2598        2     1185     1166     1213     1214
    2599        1     1221     1168     1216     1186
    2600        1     1221     1168     1216     1215
    2601        2     1091     1169     1215     1187
    2602        2     1091     1169     1215     1216
    2603        2     1188     1169     1215     1187
    2604        2     1188     1169     1215     1216
    2605        1     1224     1171     1218      529
    2606        1     1224     1171     1218     1217
    2607        2     1010     1172     1865     1826
    2608        2     1010     1172     1865     1866
    2609        2     1179     1172     1865     1826
    2610        2     1179     1172     1865     1866
    2611        1     1222     1174     1220     1180
    2612        1     1222     1174     1220     1219
    2613        2     1157     1175     1219     1181
    2614        2     1157     1175     1219     1220
    2615        2     1182     1175     1219     1181
    2616        2     1182     1175     1219     1220
    2617        1     1223     1177     1866     1819
    2618        1     1223     1177     1866     1865
    2619        2     1052     1178     1217      524
    2620        2     1052     1178     1217     1218
    2621        2     1173     1178     1217      524
    2622        2     1173     1178     1217     1218
    2623        1     1221     1180     1220     1174
    2624        1     1221     1180     1220     1219
    2625        2     1176     1181     1199     1158
    2626        2     1176     1181     1199     1207
    2627        2     1219     1181     1199     1158
    2628        2     1219     1181     1199     1207
    2629        2     1176     1181     1219     1175
    2630        2     1176     1181     1219     1220
    2631        2     1199     1181     1219     1175
    2632        2     1199     1181     1219     1220
    2633        1     1224     1183     1214      517
    2634        1     1224     1183     1214     1213
    2635        2      974     1184     1861     1814
    2636        2      974     1184     1861     1862
    2637        2     1167     1184     1861     1814
    2638        2     1167     1184     1861     1862
    2639        1     1222     1186     1216     1168
    2640        1     1222     1186     1216     1215
    2641        2     1121     1187     1215     1169
    2642        2     1121     1187     1215     1216
    2643        2     1170     1187     1215     1169
    2644        2     1170     1187     1215     1216
    2645        1     1221     1189     1210      511
    2646        1     1221     1189     1210     1209
    2647        2     1161     1190      752      735
    2648        2     1161     1190      752     1429
    2649        2     1857     1190      752      735
    2650        2     1857     1190      752     1429
    2651        2      752     1190     1857     1808
    2652        2      752     1190     1857     1858
    2653        2     1161     1190     1857     1808
    2654        2     1161     1190     1857     1858
    2655        1     1223     1192     1212     1162
    2656        1     1223     1192     1212     1211
    2657        2     1164     1193     1211     1163
    2658        2     1164     1193     1211     1212
    2659        2     1259     1193     1211     1163
    2660        2     1259     1193     1211     1212
    2661        2     1164     1193     1259     1242
    2662        2     1164     1193     1259     1287
    2663        2     1211     1193     1259     1242
    2664        2     1211     1193     1259     1287
    2665        1     1222     1195     1854     1801
    2666        1     1222     1195     1854     1853
    2667        2     1155     1196      674      669
    2668        2     1155     1196      674      713
    2669        2     1205     1196      674      669
    2670        2     1205     1196      674      713
    2671        2      674     1196     1205      506
    2672        2      674     1196     1205     1206
    2673        2     1155     1196     1205      506
    2674        2     1155     1196     1205     1206
    2675        1     1224     1198     1208     1156
    2676        1     1224     1198     1208     1207
    2677        2     1158     1199     1207     1157
    2678        2     1158     1199     1207     1208
    2679        2     1181     1199     1207     1157
    2680        2     1181     1199     1207     1208
    2681        3      506     1205     1206      547
    2682        3      506     1205     1206     1153
    2683        3     1196     1205     1206      547
    2684        3     1196     1205     1206     1153
    2685        3     1157     1207     1208     1156
    2686        3     1157     1207     1208     1198
    2687        3     1199     1207     1208     1156
    2688        3     1199     1207     1208     1198
    2689        3      542     1209     1210      511
    2690        3      542     1209     1210     1189
    2691        3     1160     1209     1210      511
    2692        3     1160     1209     1210     1189
    2693        3     1163     1211     1212     1162
    2694        3     1163     1211     1212     1192
    2695        3     1193     1211     1212     1162
    2696        3     1193     1211     1212     1192
    2697        3      536     1213     1214      517
    2698        3      536     1213     1214     1183
    2699        3     1166     1213     1214      517
    2700        3     1166     1213     1214     1183
    2701        3     1169     1215     1216     1168
    2702        3     1169     1215     1216     1186
    2703        3     1187     1215     1216     1168
    2704        3     1187     1215     1216     1186
    2705        3      524     1217     1218      529
    2706        3      524     1217     1218     1171
    2707        3     1178     1217     1218      529
    2708        3     1178     1217     1218     1171
    2709        3     1175     1219     1220     1174
    2710        3     1175     1219     1220     1180
    2711        3     1181     1219     1220     1174
    2712        3     1181     1219     1220     1180
    2713        1     1293     1225     1278      619
    2714        1     1293     1225     1278     1277
    2715        2     1269     1226      740      747
    2716        2     1269     1226      740     1433
    2717        2     1925     1226      740      747
    2718        2     1925     1226      740     1433
    2719        2      740     1226     1925     1916
    2720        2      740     1226     1925     1926
    2721        2     1269     1226     1925     1916
    2722        2     1269     1226     1925     1926
    2723        1     1295     1228     1280     1270
    2724        1     1295     1228     1280     1279
    2725        2     1272     1229     1247     1254
    2726        2     1272     1229     1247     1291
    2727        2     1279     1229     1247     1254
    2728        2     1279     1229     1247     1291
    2729        2     1247     1229     1279     1271
    2730        2     1247     1229     1279     1280
    2731        2     1272     1229     1279     1271
    2732        2     1272     1229     1279     1280
    2733        1     1294     1231     1930     1909
    2734        1     1294     1231     1930     1929
    2735        2     1263     1232      806      825
    2736        2     1263     1232      806      853
    2737        2     1281     1232      806      825
    2738        2     1281     1232      806      853
    2739        2      806     1232     1281      614
    2740        2      806     1232     1281     1282
    2741        2     1263     1232     1281      614
    2742        2     1263     1232     1281     1282
    2743        1     1296     1234     1284     1264
    2744        1     1296     1234     1284     1283
    2745        2     1266     1235     1097     1116
    2746        2     1266     1235     1097     1143
    2747        2     1283     1235     1097     1116
    2748        2     1283     1235     1097     1143
    2749        2     1097     1235     1283     1265
    2750        2     1097     1235     1283     1284
    2751        2     1266     1235     1283     1265
    2752        2     1266     1235     1283     1284
    2753        1     1295     1237     1934     1903
    2754        1     1295     1237     1934     1933
    2755        2     1016     1238     1285      608
    2756        2     1016     1238     1285     1286
    2757        2     1257     1238     1285      608
    2758        2     1257     1238     1285     1286
    2759        1     1293     1240     1288     1258
    2760        1     1293     1240     1288     1287
    2761        2     1163     1241     1287     1259
    2762        2     1163     1241     1287     1288
    2763        2     1260     1241     1287     1259
    2764        2     1260     1241     1287     1288
    2765        1     1296     1243     1290      601
    2766        1     1296     1243     1290     1289
    2767        2     1251     1244      866      909
    2768        2     1251     1244      866     1565
    2769        2     1937     1244      866      909
    2770        2     1937     1244      866     1565
    2771        2      866     1244     1937     1898
    2772        2      866     1244     1937     1938
    2773        2     1251     1244     1937     1898
    2774        2     1251     1244     1937     1938
    2775        1     1294     1246     1292     1252
    2776        1     1294     1246     1292     1291
    2777        2     1229     1247     1291     1253
    2778        2     1229     1247     1291     1292
    2779        2     1254     1247     1291     1253
    2780        2     1254     1247     1291     1292
    2781        1     1295     1249     1938     1891
    2782        1     1295     1249     1938     1937
    2783        2     1245     1250      908      867
    2784        2     1245     1250      908      917
    2785        2     1289     1250      908      867
    2786        2     1289     1250      908      917
    2787        2      908     1250     1289      596
    2788        2      908     1250     1289     1290
    2789        2     1245     1250     1289      596
    2790        2     1245     1250     1289     1290
    2791        1     1293     1252     1292     1246
    2792        1     1293     1252     1292     1291
    2793        2     1248     1253     1271     1230
    2794        2     1248     1253     1271     1279
    2795        2     1291     1253     1271     1230
    2796        2     1291     1253     1271     1279
    2797        2     1248     1253     1291     1247
    2798        2     1248     1253     1291     1292
    2799        2     1271     1253     1291     1247
    2800        2     1271     1253     1291     1292
    2801        1     1296     1255     1286      589
    2802        1     1296     1255     1286     1285
    2803        2     1046     1256     1933     1886
    2804        2     1046     1256     1933     1934
    2805        2     1239     1256     1933     1886
    2806        2     1239     1256     1933     1934
    2807        1     1294     1258     1288     1240
    2808        1     1294     1258     1288     1287
    2809        2     1193     1259     1287     1241
    2810        2     1193     1259     1287     1288
    2811        2     1242     1259     1287     1241
    2812        2     1242     1259     1287     1288
    2813        1     1293     1261     1282      583
    2814        1     1293     1261     1282     1281
    2815        2     1233     1262      824      807
    2816        2     1233     1262      824     1501
    2817        2     1929     1262      824      807
    2818        2     1929     1262      824     1501
    2819        2      824     1262     1929     1880
    2820        2      824     1262     1929     1930
    2821        2     1233     1262     1929     1880
    2822        2     1233     1262     1929     1930
    2823        1     1295     1264     1284     1234
    2824        1     1295     1264     1284     1283
    2825        2     1236     1265     1115     1098
    2826        2     1236     1265     1115     1143
    2827        2     1283     1265     1115     1098
    2828        2     1283     1265     1115     1143
    2829        2     1115     1265     1283     1235
    2830        2     1115     1265     1283     1284
    2831        2     1236     1265     1283     1235
    2832        2     1236     1265     1283     1284
    2833        1     1294     1267     1926     1873
    2834        1     1294     1267     1926     1925
    2835        2     1227     1268      746      741
    2836        2     1227     1268      746      785
    2837        2     1277     1268      746      741
    2838        2     1277     1268      746      785
    2839        2      746     1268     1277      578
    2840        2      746     1268     1277     1278
    2841        2     1227     1268     1277      578
    2842        2     1227     1268     1277     1278
    2843        1     1296     1270     1280     1228
    2844        1     1296     1270     1280     1279
    2845        2     1230     1271     1279     1229
    2846        2     1230     1271     1279     1280
    2847        2     1253     1271     1279     1229
    2848        2     1253     1271     1279     1280
    2849        3      578     1277     1278      619
    2850        3      578     1277     1278     1225
    2851        3     1268     1277     1278      619
    2852        3     1268     1277     1278     1225
    2853        3     1229     1279     1280     1228
    2854        3     1229     1279     1280     1270
    2855        3     1271     1279     1280     1228
    2856        3     1271     1279     1280     1270
    2857        3      614     1281     1282      583
    2858        3      614     1281     1282     1261
    2859        3     1232     1281     1282      583
    2860        3     1232     1281     1282     1261
    2861        3     1235     1283     1284     1234
    2862        3     1235     1283     1284     1264
    2863        3     1265     1283     1284     1234
    2864        3     1265     1283     1284     1264
    2865        3      608     1285     1286      589
    2866        3      608     1285     1286     1255
    2867        3     1238     1285     1286      589
    2868        3     1238     1285     1286     1255
    2869        3     1241     1287     1288     1240
    2870        3     1241     1287     1288     1258
    2871        3     1259     1287     1288     1240
    2872        3     1259     1287     1288     1258
    2873        3      596     1289     1290      601
    2874        3      596     1289     1290     1243
    2875        3     1250     1289     1290      601
    2876        3     1250     1289     1290     1243
    2877        3     1247     1291     1292     1246
    2878        3     1247     1291     1292     1252
    2879        3     1253     1291     1292     1246
    2880        3     1253     1291     1292     1252
    2881        1     1365     1297     1350      691
    2882        1     1365     1297     1350     1349
    2883        2     1341     1298       53       44
    2884        2     1341     1298       53       54
    2885        2     1676     1298       53       44
    2886        2     1676     1298       53       54
    2887        1     1367     1300     1352     1342
    2888        1     1367     1300     1352     1351
    2889        2     1344     1301     1319     1326
    2890        2     1344     1301     1319     1363
    2891        2     1351     1301     1319     1326
    2892        2     1351     1301     1319     1363
    2893        2     1319     1301     1351     1343
    2894        2     1319     1301     1351     1352
    2895        2     1344     1301     1351     1343
    2896        2     1344     1301     1351     1352
    2897        1     1366     1303       58       37
    2898        1     1366     1303       58       57
    2899        2     1335     1304     1353      686
    2900        2     1335     1304     1353     1354
    2901        2     1526     1304     1353      686
    2902        2     1526     1304     1353     1354
    2903        2     1335     1304     1526     1545
    2904        2     1335     1304     1526     1573
    2905        2     1353     1304     1526     1545
    2906        2     1353     1304     1526     1573
    2907        1     1368     1306     1356     1336
    2908        1     1368     1306     1356     1355
    2909        2     1338     1307     1355     1337
    2910        2     1338     1307     1355     1356
    2911        2     1385     1307     1355     1337
    2912        2     1385     1307     1355     1356
    2913        2     1338     1307     1385     1404
    2914        2     1338     1307     1385     1431
    2915        2     1355     1307     1385     1404
    2916        2     1355     1307     1385     1431
    2917        1     1367     1309       62       31
    2918        1     1367     1309       62       61
    2919        2     1329     1310     1357      680
    2920        2     1329     1310     1357     1358
    2921        2     1736     1310     1357      680
    2922        2     1736     1310     1357     1358
    2923        1     1365     1312     1360     1330
    2924        1     1365     1312     1360     1359
    2925        2     1332     1313     1359     1331
    2926        2     1332     1313     1359     1360
    2927        2     1451     1313     1359     1331
    2928        2     1451     1313     1359     1360
    2929        1     1368     1315     1362      673
    2930        1     1368     1315     1362     1361
    2931        2     1323     1316       65       26
    2932        2     1323     1316       65       66
    2933        2     1802     1316       65       26
    2934        2     1802     1316       65       66
    2935        1     1366     1318     1364     1324
    2936        1     1366     1318     1364     1363
    2937        2     1301     1319     1363     1325
    2938        2     1301     1319     1363     1364
    2939        2     1326     1319     1363     1325
    2940        2     1326     1319     1363     1364
    2941        1     1367     1321       66       19
    2942        1     1367     1321       66       65
    2943        2     1317     1322     1361      668
    2944        2     1317     1322     1361     1362
    2945        2     1844     1322     1361      668
    2946        2     1844     1322     1361     1362
    2947        1     1365     1324     1364     1318
    2948        1     1365     1324     1364     1363
    2949        2     1320     1325     1343     1302
    2950        2     1320     1325     1343     1351
    2951        2     1363     1325     1343     1302
    2952        2     1363     1325     1343     1351
    2953        2     1320     1325     1363     1319
    2954        2     1320     1325     1363     1364
    2955        2     1343     1325     1363     1319
    2956        2     1343     1325     1363     1364
    2957        1     1368     1327     1358      661
    2958        1     1368     1327     1358     1357
    2959        2     1311     1328       61       14
    2960        2     1311     1328       61       62
    2961        2     1766     1328       61       14
    2962        2     1766     1328       61       62
    2963        1     1366     1330     1360     1312
    2964        1     1366     1330     1360     1359
    2965        2     1314     1331     1359     1313
    2966        2     1314     1331     1359     1360
    2967        2     1481     1331     1359     1313
    2968        2     1481     1331     1359     1360
    2969        1     1365     1333     1354      655
    2970        1     1365     1333     1354     1353
    2971        2     1305     1334       57        8
    2972        2     1305     1334       57       58
    2973        2     1544     1334       57        8
    2974        2     1544     1334       57       58
    2975        2       57     1334     1544      277
    2976        2       57     1334     1544     1527
    2977        2     1305     1334     1544      277
    2978        2     1305     1334     1544     1527
    2979        1     1367     1336     1356     1306
    2980        1     1367     1336     1356     1355
    2981        2     1308     1337     1355     1307
    2982        2     1308     1337     1355     1356
    2983        2     1403     1337     1355     1307
    2984        2     1403     1337     1355     1356
    2985        2     1308     1337     1403     1386
    2986        2     1308     1337     1403     1431
    2987        2     1355     1337     1403     1386
    2988        2     1355     1337     1403     1431
    2989        1     1366     1339       54        1
    2990        1     1366     1339       54       53
    2991        2     1299     1340     1349      650
    2992        2     1299     1340     1349     1350
    2993        2     1682     1340     1349      650
    2994        2     1682     1340     1349     1350
    2995        1     1368     1342     1352     1300
    2996        1     1368     1342     1352     1351
    2997        2     1302     1343     1351     1301
    2998        2     1302     1343     1351     1352
    2999        2     1325     1343     1351     1301
    3000        2     1325     1343     1351     1352
    3001        3      650     1349     1350      691
    3002        3      650     1349     1350     1297
    3003        3     1340     1349     1350      691
    3004        3     1340     1349     1350     1297
    3005        3     1301     1351     1352     1300
    3006        3     1301     1351     1352     1342
    3007        3     1343     1351     1352     1300
    3008        3     1343     1351     1352     1342
    3009        3      686     1353     1354      655
    3010        3      686     1353     1354     1333
    3011        3     1304     1353     1354      655
    3012        3     1304     1353     1354     1333
    3013        3     1307     1355     1356     1306
    3014        3     1307     1355     1356     1336
    3015        3     1337     1355     1356     1306
    3016        3     1337     1355     1356     1336
    3017        3      680     1357     1358      661
    3018        3      680     1357     1358     1327
    3019        3     1310     1357     1358      661
    3020        3     1310     1357     1358     1327
    3021        3     1313     1359     1360     1312
    3022        3     1313     1359     1360     1330
    3023        3     1331     1359     1360     1312
    3024        3     1331     1359     1360     1330
    3025        3      668     1361     1362      673
    3026        3      668     1361     1362     1315
    3027        3     1322     1361     1362      673
    3028        3     1322     1361     1362     1315
    3029        3     1319     1363     1364     1318
    3030        3     1319     1363     1364     1324
    3031        3     1325     1363     1364     1318
    3032        3     1325     1363     1364     1324
    3033        1     1437     1369     1422      763
    3034        1     1437     1369     1422     1421
    3035        2     1413     1370      125      116
    3036        2     1413     1370      125      126
    3037        2     1532     1370      125      116
    3038        2     1532     1370      125      126
    3039        2      125     1370     1532      281
    3040        2      125     1370     1532     1539
    3041        2     1413     1370     1532      281
    3042        2     1413     1370     1532     1539
    3043        1     1439     1372     1424     1414
    3044        1     1439     1372     1424     1423
    3045        2     1416     1373     1391     1398
    3046        2     1416     1373     1391     1435
    3047        2     1423     1373     1391     1398
    3048        2     1423     1373     1391     1435
    3049        2     1391     1373     1423     1415
    3050        2     1391     1373     1423     1424
    3051        2     1416     1373     1423     1415
    3052        2     1416     1373     1423     1424
    3053        1     1438     1375      130      109
    3054        1     1438     1375      130      129
    3055        2     1407     1376     1425      758
    3056        2     1407     1376     1425     1426
    3057        2     1598     1376     1425      758
    3058        2     1598     1376     1425     1426
    3059        2     1407     1376     1598     1617
    3060        2     1407     1376     1598     1645
    3061        2     1425     1376     1598     1617
    3062        2     1425     1376     1598     1645
    3063        1     1440     1378     1428     1408
    3064        1     1440     1378     1428     1427
    3065        2     1410     1379     1427     1409
    3066        2     1410     1379     1427     1428
    3067        2     1457     1379     1427     1409
    3068        2     1457     1379     1427     1428
    3069        2     1410     1379     1457     1476
    3070        2     1410     1379     1457     1503
    3071        2     1427     1379     1457     1476
    3072        2     1427     1379     1457     1503
    3073        1     1439     1381      134      103
    3074        1     1439     1381      134      133
    3075        2     1401     1382     1429      752
    3076        2     1401     1382     1429     1430
    3077        2     1808     1382     1429      752
    3078        2     1808     1382     1429     1430
    3079        1     1437     1384     1432     1402
    3080        1     1437     1384     1432     1431
    3081        2     1307     1385     1431     1403
    3082        2     1307     1385     1431     1432
    3083        2     1404     1385     1431     1403
    3084        2     1404     1385     1431     1432
    3085        1     1440     1387     1434      745
    3086        1     1440     1387     1434     1433
    3087        2     1395     1388      137       98
    3088        2     1395     1388      137      138
    3089        2     1874     1388      137       98
    3090        2     1874     1388      137      138
    3091        1     1438     1390     1436     1396
    3092        1     1438     1390     1436     1435
    3093        2     1373     1391     1435     1397
    3094        2     1373     1391     1435     1436
    3095        2     1398     1391     1435     1397
    3096        2     1398     1391     1435     1436
    3097        1     1439     1393      138       91
    3098        1     1439     1393      138      137
    3099        2     1389     1394     1433      740
    3100        2     1389     1394     1433     1434
    3101        2     1916     1394     1433      740
    3102        2     1916     1394     1433     1434
    3103        1     1437     1396     1436     1390
    3104        1     1437     1396     1436     1435
    3105        2     1392     1397     1415     1374
    3106        2     1392     1397     1415     1423
    3107        2     1435     1397     1415     1374
    3108        2     1435     1397     1415     1423
    3109        2     1392     1397     1435     1391
    3110        2     1392     1397     1435     1436
    3111        2     1415     1397     1435     1391
    3112        2     1415     1397     1435     1436
    3113        1     1440     1399     1430      733
    3114        1     1440     1399     1430     1429
    3115        2     1383     1400      133       86
    3116        2     1383     1400      133      134
    3117        2     1838     1400      133       86
    3118        2     1838     1400      133      134
    3119        1     1438     1402     1432     1384
    3120        1     1438     1402     1432     1431
    3121        2     1337     1403     1431     1385
    3122        2     1337     1403     1431     1432
    3123        2     1386     1403     1431     1385
    3124        2     1386     1403     1431     1432
    3125        1     1437     1405     1426      727
    3126        1     1437     1405     1426     1425
    3127        2     1377     1406      129       80
    3128        2     1377     1406      129      130
    3129        2     1616     1406      129       80
    3130        2     1616     1406      129      130
    3131        2      129     1406     1616      349
    3132        2      129     1406     1616     1599
    3133        2     1377     1406     1616      349
    3134        2     1377     1406     1616     1599
    3135        1     1439     1408     1428     1378
    3136        1     1439     1408     1428     1427
    3137        2     1380     1409     1427     1379
    3138        2     1380     1409     1427     1428
    3139        2     1475     1409     1427     1379
    3140        2     1475     1409     1427     1428
    3141        2     1380     1409     1475     1458
    3142        2     1380     1409     1475     1503
    3143        2     1427     1409     1475     1458
    3144        2     1427     1409     1475     1503
    3145        1     1438     1411      126       73
    3146        1     1438     1411      126      125
    3147        2     1371     1412     1421      722
    3148        2     1371     1412     1421     1422
    3149        2     1538     1412     1421      722
    3150        2     1538     1412     1421     1422
    3151        2     1371     1412     1538     1533
    3152        2     1371     1412     1538     1577
    3153        2     1421     1412     1538     1533
    3154        2     1421     1412     1538     1577
    3155        1     1440     1414     1424     1372
    3156        1     1440     1414     1424     1423
    3157        2     1374     1415     1423     1373
    3158        2     1374     1415     1423     1424
    3159        2     1397     1415     1423     1373
    3160        2     1397     1415     1423     1424
    3161        3      722     1421     1422      763
    3162        3      722     1421     1422     1369
    3163        3     1412     1421     1422      763
    3164        3     1412     1421     1422     1369
    3165        3     1373     1423     1424     1372
    3166        3     1373     1423     1424     1414
    3167        3     1415     1423     1424     1372
    3168        3     1415     1423     1424     1414
    3169        3      758     1425     1426      727
    3170        3      758     1425     1426     1405
    3171        3     1376     1425     1426      727
    3172        3     1376     1425     1426     1405
    3173        3     1379     1427     1428     1378
    3174        3     1379     1427     1428     1408
    3175        3     1409     1427     1428     1378
    3176        3     1409     1427     1428     1408
    3177        3      752     1429     1430      733
    3178        3      752     1429     1430     1399
    3179        3     1382     1429     1430      733
    3180        3     1382     1429     1430     1399
    3181        3     1385     1431     1432     1384
    3182        3     1385     1431     1432     1402
    3183        3     1403     1431     1432     1384
    3184        3     1403     1431     1432     1402
    3185        3      740     1433     1434      745
    3186        3      740     1433     1434     1387
    3187        3     1394     1433     1434      745
    3188        3     1394     1433     1434     1387
    3189        3     1391     1435     1436     1390
    3190        3     1391     1435     1436     1396
    3191        3     1397     1435     1436     1390
    3192        3     1397     1435     1436     1396
    3193        1     1509     1441     1494      835
    3194        1     1509     1441     1494     1493
    3195        2     1485     1442      197      188
    3196        2     1485     1442      197      198
    3197        2     1604     1442      197      188
    3198        2     1604     1442      197      198
    3199        2      197     1442     1604      353
    3200        2      197     1442     1604     1611
    3201        2     1485     1442     1604      353
    3202        2     1485     1442     1604     1611
    3203        1     1511     1444     1496     1486
    3204        1     1511     1444     1496     1495
    3205        2     1488     1445     1463     1470
    3206        2     1488     1445     1463     1507
    3207        2     1495     1445     1463     1470
    3208        2     1495     1445     1463     1507
    3209        2     1463     1445     1495     1487
    3210        2     1463     1445     1495     1496
    3211        2     1488     1445     1495     1487
    3212        2     1488     1445     1495     1496
    3213        1     1510     1447      202      181
    3214        1     1510     1447      202      201
    3215        2     1479     1448     1497      830
    3216        2     1479     1448     1497     1498
    3217        2     1670     1448     1497      830
    3218        2     1670     1448     1497     1498
    3219        2     1479     1448     1670     1689
    3220        2     1479     1448     1670     1717
    3221        2     1497     1448     1670     1689
    3222        2     1497     1448     1670     1717
    3223        1     1512     1450     1500     1480
    3224        1     1512     1450     1500     1499
    3225        2     1482     1451     1313     1332
    3226        2     1482     1451     1313     1359
    3227        2     1499     1451     1313     1332
    3228        2     1499     1451     1313     1359
    3229        2     1313     1451     1499     1481
    3230        2     1313     1451     1499     1500
    3231        2     1482     1451     1499     1481
    3232        2     1482     1451     1499     1500
    3233        1     1511     1453      206      175
    3234        1     1511     1453      206      205
    3235        2     1473     1454     1501      824
    3236        2     1473     1454     1501     1502
    3237        2     1880     1454     1501      824
    3238        2     1880     1454     1501     1502
    3239        1     1509     1456     1504     1474
    3240        1     1509     1456     1504     1503
    3241        2     1379     1457     1503     1475
    3242        2     1379     1457     1503     1504
    3243        2     1476     1457     1503     1475
    3244        2     1476     1457     1503     1504
    3245        1     1512     1459     1506      817
    3246        1     1512     1459     1506     1505
    3247        2     1467     1460      209      170
    3248        2     1467     1460      209      210
    3249        2     1730     1460      209      170
    3250        2     1730     1460      209      210
    3251        1     1510     1462     1508     1468
    3252        1     1510     1462     1508     1507
    3253        2     1445     1463     1507     1469
    3254        2     1445     1463     1507     1508
    3255        2     1470     1463     1507     1469
    3256        2     1470     1463     1507     1508
    3257        1     1511     1465      210      163
    3258        1     1511     1465      210      209
    3259        2     1461     1466     1505      812
    3260        2     1461     1466     1505     1506
    3261        2     1772     1466     1505      812
    3262        2     1772     1466     1505     1506
    3263        1     1509     1468     1508     1462
    3264        1     1509     1468     1508     1507
    3265        2     1464     1469     1487     1446
    3266        2     1464     1469     1487     1495
    3267        2     1507     1469     1487     1446
    3268        2     1507     1469     1487     1495
    3269        2     1464     1469     1507     1463
    3270        2     1464     1469     1507     1508
    3271        2     1487     1469     1507     1463
    3272        2     1487     1469     1507     1508
    3273        1     1512     1471     1502      805
    3274        1     1512     1471     1502     1501
    3275        2     1455     1472      205      158
    3276        2     1455     1472      205      206
    3277        2     1910     1472      205      158
    3278        2     1910     1472      205      206
    3279        1     1510     1474     1504     1456
    3280        1     1510     1474     1504     1503
    3281        2     1409     1475     1503     1457
    3282        2     1409     1475     1503     1504
    3283        2     1458     1475     1503     1457
    3284        2     1458     1475     1503     1504
    3285        1     1509     1477     1498      799
    3286        1     1509     1477     1498     1497
    3287        2     1449     1478      201      152
    3288        2     1449     1478      201      202
    3289        2     1688     1478      201      152
    3290        2     1688     1478      201      202
    3291        2      201     1478     1688      421
    3292        2      201     1478     1688     1671
    3293        2     1449     1478     1688      421
    3294        2     1449     1478     1688     1671
    3295        1     1511     1480     1500     1450
    3296        1     1511     1480     1500     1499
    3297        2     1452     1481     1331     1314
    3298        2     1452     1481     1331     1359
    3299        2     1499     1481     1331     1314
    3300        2     1499     1481     1331     1359
    3301        2     1331     1481     1499     1451
    3302        2     1331     1481     1499     1500
    3303        2     1452     1481     1499     1451
    3304        2     1452     1481     1499     1500
    3305        1     1510     1483      198      145
    3306        1     1510     1483      198      197
    3307        2     1443     1484     1493      794
    3308        2     1443     1484     1493     1494
    3309        2     1610     1484     1493      794
    3310        2     1610     1484     1493     1494
    3311        2     1443     1484     1610     1605
    3312        2     1443     1484     1610     1649
    3313        2     1493     1484     1610     1605
    3314        2     1493     1484     1610     1649
    3315        1     1512     1486     1496     1444
    3316        1     1512     1486     1496     1495
    3317        2     1446     1487     1495     1445
    3318        2     1446     1487     1495     1496
    3319        2     1469     1487     1495     1445
    3320        2     1469     1487     1495     1496
    3321        3      794     1493     1494      835
    3322        3      794     1493     1494     1441
    3323        3     1484     1493     1494      835
    3324        3     1484     1493     1494     1441
    3325        3     1445     1495     1496     1444
    3326        3     1445     1495     1496     1486
    3327        3     1487     1495     1496     1444
    3328        3     1487     1495     1496     1486
    3329        3      830     1497     1498      799
    3330        3      830     1497     1498     1477
    3331        3     1448     1497     1498      799
    3332        3     1448     1497     1498     1477
    3333        3     1451     1499     1500     1450
    3334        3     1451     1499     1500     1480
    3335        3     1481     1499     1500     1450
    3336        3     1481     1499     1500     1480
    3337        3      824     1501     1502      805
    3338        3      824     1501     1502     1471
    3339        3     1454     1501     1502      805
    3340        3     1454     1501     1502     1471
    3341        3     1457     1503     1504     1456
    3342        3     1457     1503     1504     1474
    3343        3     1475     1503     1504     1456
    3344        3     1475     1503     1504     1474
    3345        3      812     1505     1506      817
    3346        3      812     1505     1506     1459
    3347        3     1466     1505     1506      817
    3348        3     1466     1505     1506     1459
    3349        3     1463     1507     1508     1462
    3350        3     1463     1507     1508     1468
    3351        3     1469     1507     1508     1462
    3352        3     1469     1507     1508     1468
    3353        1     1581     1513     1566      907
    3354        1     1581     1513     1566     1565
    3355        2     1557     1514      269      260
    3356        2     1557     1514      269      270
    3357        2     1892     1514      269      260
    3358        2     1892     1514      269      270
    3359        1     1583     1516     1568     1558
    3360        1     1583     1516     1568     1567
    3361        2     1560     1517     1535     1542
    3362        2     1560     1517     1535     1579
    3363        2     1567     1517     1535     1542
    3364        2     1567     1517     1535     1579
    3365        2     1535     1517     1567     1559
    3366        2     1535     1517     1567     1568
    3367        2     1560     1517     1567     1559
    3368        2     1560     1517     1567     1568
    3369        1     1582     1519      274      253
    3370        1     1582     1519      274      273
    3371        2     1551     1520     1569      902
    3372        2     1551     1520     1569     1570
    3373        2     1742     1520     1569      902
    3374        2     1742     1520     1569     1570
    3375        2     1551     1520     1742     1761
    3376        2     1551     1520     1742     1789
    3377        2     1569     1520     1742     1761
    3378        2     1569     1520     1742     1789
    3379        1     1584     1522     1572     1552
    3380        1     1584     1522     1572     1571
    3381        2     1554     1523     1571     1553
    3382        2     1554     1523     1571     1572
    3383        2     1601     1523     1571     1553
    3384        2     1601     1523     1571     1572
    3385        2     1554     1523     1601     1620
    3386        2     1554     1523     1601     1647
    3387        2     1571     1523     1601     1620
    3388        2     1571     1523     1601     1647
    3389        1     1583     1525      278      247
    3390        1     1583     1525      278      277
    3391        2     1304     1526     1573      896
    3392        2     1304     1526     1573     1574
    3393        2     1545     1526     1573      896
    3394        2     1545     1526     1573     1574
    3395        1     1581     1528     1576     1546
    3396        1     1581     1528     1576     1575
    3397        2     1548     1529     1575     1547
    3398        2     1548     1529     1575     1576
    3399        2     1667     1529     1575     1547
    3400        2     1667     1529     1575     1576
    3401        1     1584     1531     1578      889
    3402        1     1584     1531     1578     1577
    3403        2     1370     1532      281      242
    3404        2     1370     1532      281      282
    3405        2     1539     1532      281      242
    3406        2     1539     1532      281      282
    3407        1     1582     1534     1580     1540
    3408        1     1582     1534     1580     1579
    3409        2     1517     1535     1579     1541
    3410        2     1517     1535     1579     1580
    3411        2     1542     1535     1579     1541
    3412        2     1542     1535     1579     1580
    3413        1     1583     1537      282      235
    3414        1     1583     1537      282      281
    3415        2     1412     1538     1577      884
    3416        2     1412     1538     1577     1578
    3417        2     1533     1538     1577      884
    3418        2     1533     1538     1577     1578
    3419        1     1581     1540     1580     1534
    3420        1     1581     1540     1580     1579
    3421        2     1536     1541     1559     1518
    3422        2     1536     1541     1559     1567
    3423        2     1579     1541     1559     1518
    3424        2     1579     1541     1559     1567
    3425        2     1536     1541     1579     1535
    3426        2     1536     1541     1579     1580
    3427        2     1559     1541     1579     1535
    3428        2     1559     1541     1579     1580
    3429        1     1584     1543     1574      877
    3430        1     1584     1543     1574     1573
    3431        2     1334     1544      277      230
    3432        2     1334     1544      277      278
    3433        2     1527     1544      277      230
    3434        2     1527     1544      277      278
    3435        1     1582     1546     1576     1528
    3436        1     1582     1546     1576     1575
    3437        2     1530     1547     1575     1529
    3438        2     1530     1547     1575     1576
    3439        2     1697     1547     1575     1529
    3440        2     1697     1547     1575     1576
    3441        1     1581     1549     1570      871
    3442        1     1581     1549     1570     1569
    3443        2     1521     1550      273      224
    3444        2     1521     1550      273      274
    3445        2     1760     1550      273      224
    3446        2     1760     1550      273      274
    3447        2      273     1550     1760      493
    3448        2      273     1550     1760     1743
    3449        2     1521     1550     1760      493
    3450        2     1521     1550     1760     1743
    3451        1     1583     1552     1572     1522
    3452        1     1583     1552     1572     1571
    3453        2     1524     1553     1571     1523
    3454        2     1524     1553     1571     1572
    3455        2     1619     1553     1571     1523
    3456        2     1619     1553     1571     1572
    3457        2     1524     1553     1619     1602
    3458        2     1524     1553     1619     1647
    3459        2     1571     1553     1619     1602
    3460        2     1571     1553     1619     1647
    3461        1     1582     1555      270      217
    3462        1     1582     1555      270      269
    3463        2     1515     1556     1565      866
    3464        2     1515     1556     1565     1566
    3465        2     1898     1556     1565      866
    3466        2     1898     1556     1565     1566
    3467        1     1584     1558     1568     1516
    3468        1     1584     1558     1568     1567
    3469        2     1518     1559     1567     1517
    3470        2     1518     1559     1567     1568
    3471        2     1541     1559     1567     1517
    3472        2     1541     1559     1567     1568
    3473        3      866     1565     1566      907
    3474        3      866     1565     1566     1513
    3475        3     1556     1565     1566      907
    3476        3     1556     1565     1566     1513
    3477        3     1517     1567     1568     1516
    3478        3     1517     1567     1568     1558
    3479        3     1559     1567     1568     1516
    3480        3     1559     1567     1568     1558
    3481        3      902     1569     1570      871
    3482        3      902     1569     1570     1549
    3483        3     1520     1569     1570      871
    3484        3     1520     1569     1570     1549
    3485        3     1523     1571     1572     1522
    3486        3     1523     1571     1572     1552
    3487        3     1553     1571     1572     1522
    3488        3     1553     1571     1572     1552
    3489        3      896     1573     1574      877
    3490        3      896     1573     1574     1543
    3491        3     1526     1573     1574      877
    3492        3     1526     1573     1574     1543
    3493        3     1529     1575     1576     1528
    3494        3     1529     1575     1576     1546
    3495        3     1547     1575     1576     1528
    3496        3     1547     1575     1576     1546
    3497        3      884     1577     1578      889
    3498        3      884     1577     1578     1531
    3499        3     1538     1577     1578      889
    3500        3     1538     1577     1578     1531
    3501        3     1535     1579     1580     1534
    3502        3     1535     1579     1580     1540
    3503        3     1541     1579     1580     1534
    3504        3     1541     1579     1580     1540
    3505        1     1653     1585     1638      979
    3506        1     1653     1585     1638     1637
    3507        2     1629     1586      341      332
    3508        2     1629     1586      341      342
    3509        2     1748     1586      341      332
    3510        2     1748     1586      341      342
    3511        2      341     1586     1748      497
    3512        2      341     1586     1748     1755
    3513        2     1629     1586     1748      497
    3514        2     1629     1586     1748     1755
    3515        1     1655     1588     1640     1630
    3516        1     1655     1588     1640     1639
    3517        2     1632     1589     1607     1614
    3518        2     1632     1589     1607     1651
    3519        2     1639     1589     1607     1614
    3520        2     1639     1589     1607     1651
    3521        2     1607     1589     1639     1631
    3522        2     1607     1589     1639     1640
    3523        2     1632     1589     1639     1631
    3524        2     1632     1589     1639     1640
    3525        1     1654     1591      346      325
    3526        1     1654     1591      346      345
    3527        2     1623     1592     1641      974
    3528        2     1623     1592     1641     1642
    3529        2     1814     1592     1641      974
    3530        2     1814     1592     1641     1642
    3531        2     1623     1592     1814     1833
    3532        2     1623     1592     1814     1861
    3533        2     1641     1592     1814     1833
    3534        2     1641     1592     1814     1861
    3535        1     1656     1594     1644     1624
    3536        1     1656     1594     1644     1643
    3537        2     1626     1595     1643     1625
    3538        2     1626     1595     1643     1644
    3539        2     1673     1595     1643     1625
    3540        2     1673     1595     1643     1644
    3541        2     1626     1595     1673     1692
    3542        2     1626     1595     1673     1719
    3543        2     1643     1595     1673     1692
    3544        2     1643     1595     1673     1719
    3545        1     1655     1597      350      319
    3546        1     1655     1597      350      349
    3547        2     1376     1598     1645      968
    3548        2     1376     1598     1645     1646
    3549        2     1617     1598     1645      968
    3550        2     1617     1598     1645     1646
    3551        1     1653     1600     1648     1618
    3552        1     1653     1600     1648     1647
    3553        2     1523     1601     1647     1619
    3554        2     1523     1601     1647     1648
    3555        2     1620     1601     1647     1619
    3556        2     1620     1601     1647     1648
    3557        1     1656     1603     1650      961
    3558        1     1656     1603     1650     1649
    3559        2     1442     1604      353      314
    3560        2     1442     1604      353      354
    3561        2     1611     1604      353      314
    3562        2     1611     1604      353      354
    3563        1     1654     1606     1652     1612
    3564        1     1654     1606     1652     1651
    3565        2     1589     1607     1651     1613
    3566        2     1589     1607     1651     1652
    3567        2     1614     1607     1651     1613
    3568        2     1614     1607     1651     1652
    3569        1     1655     1609      354      307
    3570        1     1655     1609      354      353
    3571        2     1484     1610     1649      956
    3572        2     1484     1610     1649     1650
    3573        2     1605     1610     1649      956
    3574        2     1605     1610     1649     1650
    3575        1     1653     1612     1652     1606
    3576        1     1653     1612     1652     1651
    3577        2     1608     1613     1631     1590
    3578        2     1608     1613     1631     1639
    3579        2     1651     1613     1631     1590
    3580        2     1651     1613     1631     1639
    3581        2     1608     1613     1651     1607
    3582        2     1608     1613     1651     1652
    3583        2     1631     1613     1651     1607
    3584        2     1631     1613     1651     1652
    3585        1     1656     1615     1646      949
    3586        1     1656     1615     1646     1645
    3587        2     1406     1616      349      302
    3588        2     1406     1616      349      350
    3589        2     1599     1616      349      302
    3590        2     1599     1616      349      350
    3591        1     1654     1618     1648     1600
    3592        1     1654     1618     1648     1647
    3593        2     1553     1619     1647     1601
    3594        2     1553     1619     1647     1648
    3595        2     1602     1619     1647     1601
    3596        2     1602     1619     1647     1648
    3597        1     1653     1621     1642      943
    3598        1     1653     1621     1642     1641
    3599        2     1593     1622      345      296
    3600        2     1593     1622      345      346
    3601        2     1832     1622      345      296
    3602        2     1832     1622      345      346
    3603        2      345     1622     1832      565
    3604        2      345     1622     1832     1815
    3605        2     1593     1622     1832      565
    3606        2     1593     1622     1832     1815
    3607        1     1655     1624     1644     1594
    3608        1     1655     1624     1644     1643
    3609        2     1596     1625     1643     1595
    3610        2     1596     1625     1643     1644
    3611        2     1691     1625     1643     1595
    3612        2     1691     1625     1643     1644
    3613        2     1596     1625     1691     1674
    3614        2     1596     1625     1691     1719
    3615        2     1643     1625     1691     1674
    3616        2     1643     1625     1691     1719
    3617        1     1654     1627      342      289
    3618        1     1654     1627      342      341
    3619        2     1587     1628     1637      938
    3620        2     1587     1628     1637     1638
    3621        2     1754     1628     1637      938
    3622        2     1754     1628     1637     1638
    3623        2     1587     1628     1754     1749
    3624        2     1587     1628     1754     1793
    3625        2     1637     1628     1754     1749
    3626        2     1637     1628     1754     1793
    3627        1     1656     1630     1640     1588
    3628        1     1656     1630     1640     1639
    3629        2     1590     1631     1639     1589
    3630        2     1590     1631     1639     1640
    3631        2     1613     1631     1639     1589
    3632        2     1613     1631     1639     1640
    3633        3      938     1637     1638      979
    3634        3      938     1637     1638     1585
    3635        3     1628     1637     1638      979
    3636        3     1628     1637     1638     1585
    3637        3     1589     1639     1640     1588
    3638        3     1589     1639     1640     1630
    3639        3     1631     1639     1640     1588
    3640        3     1631     1639     1640     1630
    3641        3      974     1641     1642      943
    3642        3      974     1641     1642     1621
    3643        3     1592     1641     1642      943
    3644        3     1592     1641     1642     1621
    3645        3     1595     1643     1644     1594
    3646        3     1595     1643     1644     1624
    3647        3     1625     1643     1644     1594
    3648        3     1625     1643     1644     1624
    3649        3      968     1645     1646      949
    3650        3      968     1645     1646     1615
    3651        3     1598     1645     1646      949
    3652        3     1598     1645     1646     1615
    3653        3     1601     1647     1648     1600
    3654        3     1601     1647     1648     1618
    3655        3     1619     1647     1648     1600
    3656        3     1619     1647     1648     1618
    3657        3      956     1649     1650      961
    3658        3      956     1649     1650     1603
    3659        3     1610     1649     1650      961
    3660        3     1610     1649     1650     1603
    3661        3     1607     1651     1652     1606
    3662        3     1607     1651     1652     1612
    3663        3     1613     1651     1652     1606
    3664        3     1613     1651     1652     1612
    3665        1     1725     1657     1710     1051
    3666        1     1725     1657     1710     1709
    3667        2     1701     1658      413      404
    3668        2     1701     1658      413      414
    3669        2     1820     1658      413      404
    3670        2     1820     1658      413      414
    3671        2      413     1658     1820      569
    3672        2      413     1658     1820     1827
    3673        2     1701     1658     1820      569
    3674        2     1701     1658     1820     1827
    3675        1     1727     1660     1712     1702
    3676        1     1727     1660     1712     1711
    3677        2     1704     1661     1679     1686
    3678        2     1704     1661     1679     1723
    3679        2     1711     1661     1679     1686
    3680        2     1711     1661     1679     1723
    3681        2     1679     1661     1711     1703
    3682        2     1679     1661     1711     1712
    3683        2     1704     1661     1711     1703
    3684        2     1704     1661     1711     1712
    3685        1     1726     1663      418      397
    3686        1     1726     1663      418      417
    3687        2     1695     1664     1713     1046
    3688        2     1695     1664     1713     1714
    3689        2     1886     1664     1713     1046
    3690        2     1886     1664     1713     1714
    3691        2     1695     1664     1886     1905
    3692        2     1695     1664     1886     1933
    3693        2     1713     1664     1886     1905
    3694        2     1713     1664     1886     1933
    3695        1     1728     1666     1716     1696
    3696        1     1728     1666     1716     1715
    3697        2     1698     1667     1529     1548
    3698        2     1698     1667     1529     1575
    3699        2     1715     1667     1529     1548
    3700        2     1715     1667     1529     1575
    3701        2     1529     1667     1715     1697
    3702        2     1529     1667     1715     1716
    3703        2     1698     1667     1715     1697
    3704        2     1698     1667     1715     1716
    3705        1     1727     1669      422      391
    3706        1     1727     1669      422      421
    3707        2     1448     1670     1717     1040
    3708        2     1448     1670     1717     1718
    3709        2     1689     1670     1717     1040
    3710        2     1689     1670     1717     1718
    3711        1     1725     1672     1720     1690
    3712        1     1725     1672     1720     1719
    3713        2     1595     1673     1719     1691
    3714        2     1595     1673     1719     1720
    3715        2     1692     1673     1719     1691
    3716        2     1692     1673     1719     1720
    3717        1     1728     1675     1722     1033
    3718        1     1728     1675     1722     1721
    3719        2     1298     1676      425      386
    3720        2     1298     1676      425      426
    3721        2     1683     1676      425      386
    3722        2     1683     1676      425      426
    3723        2      425     1676     1298       53
    3724        2      425     1676     1298     1341
    3725        2     1683     1676     1298       53
    3726        2     1683     1676     1298     1341
    3727        1     1726     1678     1724     1684
    3728        1     1726     1678     1724     1723
    3729        2     1661     1679     1723     1685
    3730        2     1661     1679     1723     1724
    3731        2     1686     1679     1723     1685
    3732        2     1686     1679     1723     1724
    3733        1     1727     1681      426      379
    3734        1     1727     1681      426      425
    3735        2     1677     1682     1340     1299
    3736        2     1677     1682     1340     1349
    3737        2     1721     1682     1340     1299
    3738        2     1721     1682     1340     1349
    3739        2     1340     1682     1721     1028
    3740        2     1340     1682     1721     1722
    3741        2     1677     1682     1721     1028
    3742        2     1677     1682     1721     1722
    3743        1     1725     1684     1724     1678
    3744        1     1725     1684     1724     1723
    3745        2     1680     1685     1703     1662
    3746        2     1680     1685     1703     1711
    3747        2     1723     1685     1703     1662
    3748        2     1723     1685     1703     1711
    3749        2     1680     1685     1723     1679
    3750        2     1680     1685     1723     1724
    3751        2     1703     1685     1723     1679
    3752        2     1703     1685     1723     1724
    3753        1     1728     1687     1718     1021
    3754        1     1728     1687     1718     1717
    3755        2     1478     1688      421      374
    3756        2     1478     1688      421      422
    3757        2     1671     1688      421      374
    3758        2     1671     1688      421      422
    3759        1     1726     1690     1720     1672
    3760        1     1726     1690     1720     1719
    3761        2     1625     1691     1719     1673
    3762        2     1625     1691     1719     1720
    3763        2     1674     1691     1719     1673
    3764        2     1674     1691     1719     1720
    3765        1     1725     1693     1714     1015
    3766        1     1725     1693     1714     1713
    3767        2     1665     1694      417      368
    3768        2     1665     1694      417      418
    3769        2     1904     1694      417      368
    3770        2     1904     1694      417      418
    3771        2      417     1694     1904      637
    3772        2      417     1694     1904     1887
    3773        2     1665     1694     1904      637
    3774        2     1665     1694     1904     1887
    3775        1     1727     1696     1716     1666
    3776        1     1727     1696     1716     1715
    3777        2     1668     1697     1547     1530
    3778        2     1668     1697     1547     1575
    3779        2     1715     1697     1547     1530
    3780        2     1715     1697     1547     1575
    3781        2     1547     1697     1715     1667
    3782        2     1547     1697     1715     1716
    3783        2     1668     1697     1715     1667
    3784        2     1668     1697     1715     1716
    3785        1     1726     1699      414      361
    3786        1     1726     1699      414      413
    3787        2     1659     1700     1709     1010
    3788        2     1659     1700     1709     1710
    3789        2     1826     1700     1709     1010
    3790        2     1826     1700     1709     1710
    3791        2     1659     1700     1826     1821
    3792        2     1659     1700     1826     1865
    3793        2     1709     1700     1826     1821
    3794        2     1709     1700     1826     1865
    3795        1     1728     1702     1712     1660
    3796        1     1728     1702     1712     1711
    3797        2     1662     1703     1711     1661
    3798        2     1662     1703     1711     1712
    3799        2     1685     1703     1711     1661
    3800        2     1685     1703     1711     1712
    3801        3     1010     1709     1710     1051
    3802        3     1010     1709     1710     1657
    3803        3     1700     1709     1710     1051
    3804        3     1700     1709     1710     1657
    3805        3     1661     1711     1712     1660
    3806        3     1661     1711     1712     1702
    3807        3     1703     1711     1712     1660
    3808        3     1703     1711     1712     1702
    3809        3     1046     1713     1714     1015
    3810        3     1046     1713     1714     1693
    3811        3     1664     1713     1714     1015
    3812        3     1664     1713     1714     1693
    3813        3     1667     1715     1716     1666
    3814        3     1667     1715     1716     1696
    3815        3     1697     1715     1716     1666
    3816        3     1697     1715     1716     1696
    3817        3     1040     1717     1718     1021
    3818        3     1040     1717     1718     1687
    3819        3     1670     1717     1718     1021
    3820        3     1670     1717     1718     1687
    3821        3     1673     1719     1720     1672
    3822        3     1673     1719     1720     1690
    3823        3     1691     1719     1720     1672
    3824        3     1691     1719     1720     1690
    3825        3     1028     1721     1722     1033
    3826        3     1028     1721     1722     1675
    3827        3     1682     1721     1722     1033
    3828        3     1682     1721     1722     1675
    3829        3     1679     1723     1724     1678
    3830        3     1679     1723     1724     1684
    3831        3     1685     1723     1724     1678
    3832        3     1685     1723     1724     1684
    3833        1     1797     1729     1782     1123
    3834        1     1797     1729     1782     1781
    3835        2     1460     1730      485      476
    3836        2     1460     1730      485      486
    3837        2     1773     1730      485      476
    3838        2     1773     1730      485      486
    3839        2      485     1730     1460      209
    3840        2      485     1730     1460     1467
    3841        2     1773     1730     1460      209
    3842        2     1773     1730     1460     1467
    3843        1     1799     1732     1784     1774
    3844        1     1799     1732     1784     1783
    3845        2     1776     1733     1751     1758
    3846        2     1776     1733     1751     1795
    3847        2     1783     1733     1751     1758
    3848        2     1783     1733     1751     1795
    3849        2     1751     1733     1783     1775
    3850        2     1751     1733     1783     1784
    3851        2     1776     1733     1783     1775
    3852        2     1776     1733     1783     1784
    3853        1     1798     1735      490      469
    3854        1     1798     1735      490      489
    3855        2     1767     1736     1310     1329
    3856        2     1767     1736     1310     1357
    3857        2     1785     1736     1310     1329
    3858        2     1785     1736     1310     1357
    3859        2     1310     1736     1785     1118
    3860        2     1310     1736     1785     1786
    3861        2     1767     1736     1785     1118
    3862        2     1767     1736     1785     1786
    3863        1     1800     1738     1788     1768
    3864        1     1800     1738     1788     1787
    3865        2     1770     1739     1787     1769
    3866        2     1770     1739     1787     1788
    3867        2     1817     1739     1787     1769
    3868        2     1817     1739     1787     1788
    3869        2     1770     1739     1817     1836
    3870        2     1770     1739     1817     1863
    3871        2     1787     1739     1817     1836
    3872        2     1787     1739     1817     1863
    3873        1     1799     1741      494      463
    3874        1     1799     1741      494      493
    3875        2     1520     1742     1789     1112
    3876        2     1520     1742     1789     1790
    3877        2     1761     1742     1789     1112
    3878        2     1761     1742     1789     1790
    3879        1     1797     1744     1792     1762
    3880        1     1797     1744     1792     1791
    3881        2     1764     1745     1791     1763
    3882        2     1764     1745     1791     1792
    3883        2     1883     1745     1791     1763
    3884        2     1883     1745     1791     1792
    3885        1     1800     1747     1794     1105
    3886        1     1800     1747     1794     1793
    3887        2     1586     1748      497      458
    3888        2     1586     1748      497      498
    3889        2     1755     1748      497      458
    3890        2     1755     1748      497      498
    3891        1     1798     1750     1796     1756
    3892        1     1798     1750     1796     1795
    3893        2     1733     1751     1795     1757
    3894        2     1733     1751     1795     1796
    3895        2     1758     1751     1795     1757
    3896        2     1758     1751     1795     1796
    3897        1     1799     1753      498      451
    3898        1     1799     1753      498      497
    3899        2     1628     1754     1793     1100
    3900        2     1628     1754     1793     1794
    3901        2     1749     1754     1793     1100
    3902        2     1749     1754     1793     1794
    3903        1     1797     1756     1796     1750
    3904        1     1797     1756     1796     1795
    3905        2     1752     1757     1775     1734
    3906        2     1752     1757     1775     1783
    3907        2     1795     1757     1775     1734
    3908        2     1795     1757     1775     1783
    3909        2     1752     1757     1795     1751
    3910        2     1752     1757     1795     1796
    3911        2     1775     1757     1795     1751
    3912        2     1775     1757     1795     1796
    3913        1     1800     1759     1790     1093
    3914        1     1800     1759     1790     1789
    3915        2     1550     1760      493      446
    3916        2     1550     1760      493      494
    3917        2     1743     1760      493      446
    3918        2     1743     1760      493      494
    3919        1     1798     1762     1792     1744
    3920        1     1798     1762     1792     1791
    3921        2     1746     1763     1791     1745
    3922        2     1746     1763     1791     1792
    3923        2     1913     1763     1791     1745
    3924        2     1913     1763     1791     1792
    3925        1     1797     1765     1786     1087
    3926        1     1797     1765     1786     1785
    3927        2     1328     1766      489      440
    3928        2     1328     1766      489      490
    3929        2     1737     1766      489      440
    3930        2     1737     1766      489      490
    3931        2      489     1766     1328       61
    3932        2      489     1766     1328     1311
    3933        2     1737     1766     1328       61
    3934        2     1737     1766     1328     1311
    3935        1     1799     1768     1788     1738
    3936        1     1799     1768     1788     1787
    3937        2     1740     1769     1787     1739
    3938        2     1740     1769     1787     1788
    3939        2     1835     1769     1787     1739
    3940        2     1835     1769     1787     1788
    3941        2     1740     1769     1835     1818
    3942        2     1740     1769     1835     1863
    3943        2     1787     1769     1835     1818
    3944        2     1787     1769     1835     1863
    3945        1     1798     1771      486      433
    3946        1     1798     1771      486      485
    3947        2     1731     1772     1466     1461
    3948        2     1731     1772     1466     1505
    3949        2     1781     1772     1466     1461
    3950        2     1781     1772     1466     1505
    3951        2     1466     1772     1781     1082
    3952        2     1466     1772     1781     1782
    3953        2     1731     1772     1781     1082
    3954        2     1731     1772     1781     1782
    3955        1     1800     1774     1784     1732
    3956        1     1800     1774     1784     1783
    3957        2     1734     1775     1783     1733
    3958        2     1734     1775     1783     1784
    3959        2     1757     1775     1783     1733
    3960        2     1757     1775     1783     1784
    3961        3     1082     1781     1782     1123
    3962        3     1082     1781     1782     1729
    3963        3     1772     1781     1782     1123
    3964        3     1772     1781     1782     1729
    3965        3     1733     1783     1784     1732
    3966        3     1733     1783     1784     1774
    3967        3     1775     1783     1784     1732
    3968        3     1775     1783     1784     1774
    3969        3     1118     1785     1786     1087
    3970        3     1118     1785     1786     1765
    3971        3     1736     1785     1786     1087
    3972        3     1736     1785     1786     1765
    3973        3     1739     1787     1788     1738
    3974        3     1739     1787     1788     1768
    3975        3     1769     1787     1788     1738
    3976        3     1769     1787     1788     1768
    3977        3     1112     1789     1790     1093
    3978        3     1112     1789     1790     1759
    3979        3     1742     1789     1790     1093
    3980        3     1742     1789     1790     1759
    3981        3     1745     1791     1792     1744
    3982        3     1745     1791     1792     1762
    3983        3     1763     1791     1792     1744
    3984        3     1763     1791     1792     1762
    3985        3     1100     1793     1794     1105
    3986        3     1100     1793     1794     1747
    3987        3     1754     1793     1794     1105
    3988        3     1754     1793     1794     1747
    3989        3     1751     1795     1796     1750
    3990        3     1751     1795     1796     1756
    3991        3     1757     1795     1796     1750
    3992        3     1757     1795     1796     1756
    3993        1     1869     1801     1854     1195
    3994        1     1869     1801     1854     1853
    3995        2     1316     1802      557      548
    3996        2     1316     1802      557      558
    3997        2     1845     1802      557      548
    3998        2     1845     1802      557      558
    3999        2      557     1802     1316       65
    4000        2      557     1802     1316     1323
    4001        2     1845     1802     1316       65
    4002        2     1845     1802     1316     1323
    4003        1     1871     1804     1856     1846
    4004        1     1871     1804     1856     1855
    4005        2     1848     1805     1823     1830
    4006        2     1848     1805     1823     1867
    4007        2     1855     1805     1823     1830
    4008        2     1855     1805     1823     1867
    4009        2     1823     1805     1855     1847
    4010        2     1823     1805     1855     1856
    4011        2     1848     1805     1855     1847
    4012        2     1848     1805     1855     1856
    4013        1     1870     1807      562      541
    4014        1     1870     1807      562      561
    4015        2     1839     1808     1382     1401
    4016        2     1839     1808     1382     1429
    4017        2     1857     1808     1382     1401
    4018        2     1857     1808     1382     1429
    4019        2     1382     1808     1857     1190
    4020        2     1382     1808     1857     1858
    4021        2     1839     1808     1857     1190
    4022        2     1839     1808     1857     1858
    4023        1     1872     1810     1860     1840
    4024        1     1872     1810     1860     1859
    4025        2     1842     1811     1859     1841
    4026        2     1842     1811     1859     1860
    4027        2     1889     1811     1859     1841
    4028        2     1889     1811     1859     1860
    4029        2     1842     1811     1889     1908
    4030        2     1842     1811     1889     1935
    4031        2     1859     1811     1889     1908
    4032        2     1859     1811     1889     1935
    4033        1     1871     1813      566      535
    4034        1     1871     1813      566      565
    4035        2     1592     1814     1861     1184
    4036        2     1592     1814     1861     1862
    4037        2     1833     1814     1861     1184
    4038        2     1833     1814     1861     1862
    4039        1     1869     1816     1864     1834
    4040        1     1869     1816     1864     1863
    4041        2     1739     1817     1863     1835
    4042        2     1739     1817     1863     1864
    4043        2     1836     1817     1863     1835
    4044        2     1836     1817     1863     1864
    4045        1     1872     1819     1866     1177
    4046        1     1872     1819     1866     1865
    4047        2     1658     1820      569      530
    4048        2     1658     1820      569      570
    4049        2     1827     1820      569      530
    4050        2     1827     1820      569      570
    4051        1     1870     1822     1868     1828
    4052        1     1870     1822     1868     1867
    4053        2     1805     1823     1867     1829
    4054        2     1805     1823     1867     1868
    4055        2     1830     1823     1867     1829
    4056        2     1830     1823     1867     1868
    4057        1     1871     1825      570      523
    4058        1     1871     1825      570      569
    4059        2     1700     1826     1865     1172
    4060        2     1700     1826     1865     1866
    4061        2     1821     1826     1865     1172
    4062        2     1821     1826     1865     1866
    4063        1     1869     1828     1868     1822
    4064        1     1869     1828     1868     1867
    4065        2     1824     1829     1847     1806
    4066        2     1824     1829     1847     1855
    4067        2     1867     1829     1847     1806
    4068        2     1867     1829     1847     1855
    4069        2     1824     1829     1867     1823
    4070        2     1824     1829     1867     1868
    4071        2     1847     1829     1867     1823
    4072        2     1847     1829     1867     1868
    4073        1     1872     1831     1862     1165
    4074        1     1872     1831     1862     1861
    4075        2     1622     1832      565      518
    4076        2     1622     1832      565      566
    4077        2     1815     1832      565      518
    4078        2     1815     1832      565      566
    4079        1     1870     1834     1864     1816
    4080        1     1870     1834     1864     1863
    4081        2     1769     1835     1863     1817
    4082        2     1769     1835     1863     1864
    4083        2     1818     1835     1863     1817
    4084        2     1818     1835     1863     1864
    4085        1     1869     1837     1858     1159
    4086        1     1869     1837     1858     1857
    4087        2     1400     1838      561      512
    4088        2     1400     1838      561      562
    4089        2     1809     1838      561      512
    4090        2     1809     1838      561      562
    4091        2      561     1838     1400      133
    4092        2      561     1838     1400     1383
    4093        2     1809     1838     1400      133
    4094        2     1809     1838     1400     1383
    4095        1     1871     1840     1860     1810
    4096        1     1871     1840     1860     1859
    4097        2     1812     1841     1859     1811
    4098        2     1812     1841     1859     1860
    4099        2     1907     1841     1859     1811
    4100        2     1907     1841     1859     1860
    4101        2     1812     1841     1907     1890
    4102        2     1812     1841     1907     1935
    4103        2     1859     1841     1907     1890
    4104        2     1859     1841     1907     1935
    4105        1     1870     1843      558      505
    4106        1     1870     1843      558      557
    4107        2     1803     1844     1322     1317
    4108        2     1803     1844     1322     1361
    4109        2     1853     1844     1322     1317
    4110        2     1853     1844     1322     1361
    4111        2     1322     1844     1853     1154
    4112        2     1322     1844     1853     1854
    4113        2     1803     1844     1853     1154
    4114        2     1803     1844     1853     1854
    4115        1     1872     1846     1856     1804
    4116        1     1872     1846     1856     1855
    4117        2     1806     1847     1855     1805
    4118        2     1806     1847     1855     1856
    4119        2     1829     1847     1855     1805
    4120        2     1829     1847     1855     1856
    4121        3     1154     1853     1854     1195
    4122        3     1154     1853     1854     1801
    4123        3     1844     1853     1854     1195
    4124        3     1844     1853     1854     1801
    4125        3     1805     1855     1856     1804
    4126        3     1805     1855     1856     1846
    4127        3     1847     1855     1856     1804
    4128        3     1847     1855     1856     1846
    4129        3     1190     1857     1858     1159
    4130        3     1190     1857     1858     1837
    4131        3     1808     1857     1858     1159
    4132        3     1808     1857     1858     1837
    4133        3     1811     1859     1860     1810
    4134        3     1811     1859     1860     1840
    4135        3     1841     1859     1860     1810
    4136        3     1841     1859     1860     1840
    4137        3     1184     1861     1862     1165
    4138        3     1184     1861     1862     1831
    4139        3     1814     1861     1862     1165
    4140        3     1814     1861     1862     1831
    4141        3     1817     1863     1864     1816
    4142        3     1817     1863     1864     1834
    4143        3     1835     1863     1864     1816
    4144        3     1835     1863     1864     1834
    4145        3     1172     1865     1866     1177
    4146        3     1172     1865     1866     1819
    4147        3     1826     1865     1866     1177
    4148        3     1826     1865     1866     1819
    4149        3     1823     1867     1868     1822
    4150        3     1823     1867     1868     1828
    4151        3     1829     1867     1868     1822
    4152        3     1829     1867     1868     1828
    4153        1     1941     1873     1926     1267
    4154        1     1941     1873     1926     1925
    4155        2     1388     1874      629      620
    4156        2     1388     1874      629      630
    4157        2     1917     1874      629      620
    4158        2     1917     1874      629      630
    4159        2      629     1874     1388      137
    4160        2      629     1874     1388     1395
    4161        2     1917     1874     1388      137
    4162        2     1917     1874     1388     1395
    4163        1     1943     1876     1928     1918
    4164        1     1943     1876     1928     1927
    4165        2     1920     1877     1895     1902
    4166        2     1920     1877     1895     1939
    4167        2     1927     1877     1895     1902
    4168        2     1927     1877     1895     1939
    4169        2     1895     1877     1927     1919
    4170        2     1895     1877     1927     1928
    4171        2     1920     1877     1927     1919
    4172        2     1920     1877     1927     1928
    4173        1     1942     1879      634      613
    4174        1     1942     1879      634      633
    4175        2     1911     1880     1454     1473
    4176        2     1911     1880     1454     1501
    4177        2     1929     1880     1454     1473
    4178        2     1929     1880     1454     1501
    4179        2     1454     1880     1929     1262
    4180        2     1454     1880     1929     1930
    4181        2     1911     1880     1929     1262
    4182        2     1911     1880     1929     1930
    4183        1     1944     1882     1932     1912
    4184        1     1944     1882     1932     1931
    4185        2     1914     1883     1745     1764
    4186        2     1914     1883     1745     1791
    4187        2     1931     1883     1745     1764
    4188        2     1931     1883     1745     1791
    4189        2     1745     1883     1931     1913
    4190        2     1745     1883     1931     1932
    4191        2     1914     1883     1931     1913
    4192        2     1914     1883     1931     1932
    4193        1     1943     1885      638      607
    4194        1     1943     1885      638      637
    4195        2     1664     1886     1933     1256
    4196        2     1664     1886     1933     1934
    4197        2     1905     1886     1933     1256
    4198        2     1905     1886     1933     1934
    4199        1     1941     1888     1936     1906
    4200        1     1941     1888     1936     1935
    4201        2     1811     1889     1935     1907
    4202        2     1811     1889     1935     1936
    4203        2     1908     1889     1935     1907
    4204        2     1908     1889     1935     1936
    4205        1     1944     1891     1938     1249
    4206        1     1944     1891     1938     1937
    4207        2     1514     1892      641      602
    4208        2     1514     1892      641      642
    4209        2     1899     1892      641      602
    4210        2     1899     1892      641      642
    4211        2      641     1892     1514      269
    4212        2      641     1892     1514     1557
    4213        2     1899     1892     1514      269
    4214        2     1899     1892     1514     1557
    4215        1     1942     1894     1940     1900
    4216        1     1942     1894     1940     1939
    4217        2     1877     1895     1939     1901
    4218        2     1877     1895     1939     1940
    4219        2     1902     1895     1939     1901
    4220        2     1902     1895     1939     1940
    4221        1     1943     1897      642      595
    4222        1     1943     1897      642      641
    4223        2     1893     1898     1556     1515
    4224        2     1893     1898     1556     1565
    4225        2     1937     1898     1556     1515
    4226        2     1937     1898     1556     1565
    4227        2     1556     1898     1937     1244
    4228        2     1556     1898     1937     1938
    4229        2     1893     1898     1937     1244
    4230        2     1893     1898     1937     1938
    4231        1     1941     1900     1940     1894
    4232        1     1941     1900     1940     1939
    4233        2     1896     1901     1919     1878
    4234        2     1896     1901     1919     1927
    4235        2     1939     1901     1919     1878
    4236        2     1939     1901     1919     1927
    4237        2     1896     1901     1939     1895
    4238        2     1896     1901     1939     1940
    4239        2     1919     1901     1939     1895
    4240        2     1919     1901     1939     1940
    4241        1     1944     1903     1934     1237
    4242        1     1944     1903     1934     1933
    4243        2     1694     1904      637      590
    4244        2     1694     1904      637      638
    4245        2     1887     1904      637      590
    4246        2     1887     1904      637      638
    4247        1     1942     1906     1936     1888
    4248        1     1942     1906     1936     1935
    4249        2     1841     1907     1935     1889
    4250        2     1841     1907     1935     1936
    4251        2     1890     1907     1935     1889
    4252        2     1890     1907     1935     1936
    4253        1     1941     1909     1930     1231
    4254        1     1941     1909     1930     1929
    4255        2     1472     1910      633      584
    4256        2     1472     1910      633      634
    4257        2     1881     1910      633      584
    4258        2     1881     1910      633      634
    4259        2      633     1910     1472      205
    4260        2      633     1910     1472     1455
    4261        2     1881     1910     1472      205
    4262        2     1881     1910     1472     1455
    4263        1     1943     1912     1932     1882
    4264        1     1943     1912     1932     1931
    4265        2     1884     1913     1763     1746
    4266        2     1884     1913     1763     1791
    4267        2     1931     1913     1763     1746
    4268        2     1931     1913     1763     1791
    4269        2     1763     1913     1931     1883
    4270        2     1763     1913     1931     1932
    4271        2     1884     1913     1931     1883
    4272        2     1884     1913     1931     1932
    4273        1     1942     1915      630      577
    4274        1     1942     1915      630      629
    4275        2     1875     1916     1394     1389
    4276        2     1875     1916     1394     1433
    4277        2     1925     1916     1394     1389
    4278        2     1925     1916     1394     1433
    4279        2     1394     1916     1925     1226
    4280        2     1394     1916     1925     1926
    4281        2     1875     1916     1925     1226
    4282        2     1875     1916     1925     1926
    4283        1     1944     1918     1928     1876
    4284        1     1944     1918     1928     1927
    4285        2     1878     1919     1927     1877
    4286        2     1878     1919     1927     1928
    4287        2     1901     1919     1927     1877
    4288        2     1901     1919     1927     1928
    4289        3     1226     1925     1926     1267
    4290        3     1226     1925     1926     1873
    4291        3     1916     1925     1926     1267
    4292        3     1916     1925     1926     1873
    4293        3     1877     1927     1928     1876
    4294        3     1877     1927     1928     1918
    4295        3     1919     1927     1928     1876
    4296        3     1919     1927     1928     1918
    4297        3     1262     1929     1930     1231
    4298        3     1262     1929     1930     1909
    4299        3     1880     1929     1930     1231
    4300        3     1880     1929     1930     1909
    4301        3     1883     1931     1932     1882
    4302        3     1883     1931     1932     1912
    4303        3     1913     1931     1932     1882
    4304        3     1913     1931     1932     1912
    4305        3     1256     1933     1934     1237
    4306        3     1256     1933     1934     1903
    4307        3     1886     1933     1934     1237
    4308        3     1886     1933     1934     1903
    4309        3     1889     1935     1936     1888
    4310        3     1889     1935     1936     1906
    4311        3     1907     1935     1936     1888
    4312        3     1907     1935     1936     1906
    4313        3     1244     1937     1938     1249
    4314        3     1244     1937     1938     1891
    4315        3     1898     1937     1938     1249
    4316        3     1898     1937     1938     1891
    4317        3     1895     1939     1940     1894
    4318        3     1895     1939     1940     1900
    4319        3     1901     1939     1940     1894
    4320        3     1901     1939     1940     1900

Impropers

       1        1        2       45      380      701
       2        1        2      380       45      701
       3        1        2      701       45      380
       4        1        5       23       48       55
       5        1        5       48       23       55
       6        1        5       55       23       48
       7        1        8       39       57      230
       8        1        8       57       39      230
       9        1        8      230       39       57
      10        1       11       42       59       89
      11        1       11       59       42       89
      12        1       11       89       42       59
      13        1       14       33       61      440
      14        1       14       61       33      440
      15        1       14      440       33       61
      16        1       17       36       63      155
      17        1       17       63       36      155
      18        1       17      155       36       63
      19        1       20       27      506      713
      20        1       20      506       27      713
      21        1       20      713       27      506
      22        1       23        5       30       67
      23        1       23       30        5       67
      24        1       23       67        5       30
      25        1       26       21       65      548
      26        1       26       65       21      548
      27        1       26      548       21       65
      28        1       29       24       47       67
      29        1       29       47       24       67
      30        1       29       67       24       47
      31        1       32       15      470      709
      32        1       32      470       15      709
      33        1       32      709       15      470
      34        1       35       18       63      185
      35        1       35       63       18      185
      36        1       35      185       18       63
      37        1       38        9      248      705
      38        1       38      248        9      705
      39        1       38      705        9      248
      40        1       41       12       59      107
      41        1       41       59       12      107
      42        1       41      107       12       59
      43        1       44        3       53      386
      44        1       44       53        3      386
      45        1       44      386        3       53
      46        1       47        6       29       55
      47        1       47       29        6       55
      48        1       47       55        6       29
      49        1       53       44       54     1298
      50        1       53       54       44     1298
      51        1       53     1298       44       54
      52        1       54        1       53     1339
      53        1       54       53        1     1339
      54        1       54     1339        1       53
      55        1       55        5       47       56
      56        1       55       47        5       56
      57        1       55       56        5       47
      58        1       56        4       46       55
      59        1       56       46        4       55
      60        1       56       55        4       46
      61        1       57        8       58     1334
      62        1       57       58        8     1334
      63        1       57     1334        8       58
      64        1       58       37       57     1303
      65        1       58       57       37     1303
      66        1       58     1303       37       57
      67        1       59       11       41       60
      68        1       59       41       11       60
      69        1       59       60       11       41
      70        1       60       10       40       59
      71        1       60       40       10       59
      72        1       60       59       10       40
      73        1       61       14       62     1328
      74        1       61       62       14     1328
      75        1       61     1328       14       62
      76        1       62       31       61     1309
      77        1       62       61       31     1309
      78        1       62     1309       31       61
      79        1       63       17       35       64
      80        1       63       35       17       64
      81        1       63       64       17       35
      82        1       64       16       34       63
      83        1       64       34       16       63
      84        1       64       63       16       34
      85        1       65       26       66     1316
      86        1       65       66       26     1316
      87        1       65     1316       26       66
      88        1       66       19       65     1321
      89        1       66       65       19     1321
      90        1       66     1321       19       65
      91        1       67       23       29       68
      92        1       67       29       23       68
      93        1       67       68       23       29
      94        1       68       22       28       67
      95        1       68       28       22       67
      96        1       68       67       22       28
      97        1       74      117      236      773
      98        1       74      236      117      773
      99        1       74      773      117      236
     100        1       77       95      120      127
     101        1       77      120       95      127
     102        1       77      127       95      120
     103        1       80      111      129      302
     104        1       80      129      111      302
     105        1       80      302      111      129
     106        1       83      114      131      161
     107        1       83      131      114      161
     108        1       83      161      114      131
     109        1       86      105      133      512
     110        1       86      133      105      512
     111        1       86      512      105      133
     112        1       89       11      108      135
     113        1       89      108       11      135
     114        1       89      135       11      108
     115        1       92       99      578      785
     116        1       92      578       99      785
     117        1       92      785       99      578
     118        1       95       77      102      139
     119        1       95      102       77      139
     120        1       95      139       77      102
     121        1       98       93      137      620
     122        1       98      137       93      620
     123        1       98      620       93      137
     124        1      101       96      119      139
     125        1      101      119       96      139
     126        1      101      139       96      119
     127        1      104       87      542      781
     128        1      104      542       87      781
     129        1      104      781       87      542
     130        1      107       41       90      135
     131        1      107       90       41      135
     132        1      107      135       41       90
     133        1      110       81      320      777
     134        1      110      320       81      777
     135        1      110      777       81      320
     136        1      113       84      131      179
     137        1      113      131       84      179
     138        1      113      179       84      131
     139        1      116       75      125      242
     140        1      116      125       75      242
     141        1      116      242       75      125
     142        1      119       78      101      127
     143        1      119      101       78      127
     144        1      119      127       78      101
     145        1      125      116      126     1370
     146        1      125      126      116     1370
     147        1      125     1370      116      126
     148        1      126       73      125     1411
     149        1      126      125       73     1411
     150        1      126     1411       73      125
     151        1      127       77      119      128
     152        1      127      119       77      128
     153        1      127      128       77      119
     154        1      128       76      118      127
     155        1      128      118       76      127
     156        1      128      127       76      118
     157        1      129       80      130     1406
     158        1      129      130       80     1406
     159        1      129     1406       80      130
     160        1      130      109      129     1375
     161        1      130      129      109     1375
     162        1      130     1375      109      129
     163        1      131       83      113      132
     164        1      131      113       83      132
     165        1      131      132       83      113
     166        1      132       82      112      131
     167        1      132      112       82      131
     168        1      132      131       82      112
     169        1      133       86      134     1400
     170        1      133      134       86     1400
     171        1      133     1400       86      134
     172        1      134      103      133     1381
     173        1      134      133      103     1381
     174        1      134     1381      103      133
     175        1      135       89      107      136
     176        1      135      107       89      136
     177        1      135      136       89      107
     178        1      136       88      106      135
     179        1      136      106       88      135
     180        1      136      135       88      106
     181        1      137       98      138     1388
     182        1      137      138       98     1388
     183        1      137     1388       98      138
     184        1      138       91      137     1393
     185        1      138      137       91     1393
     186        1      138     1393       91      137
     187        1      139       95      101      140
     188        1      139      101       95      140
     189        1      139      140       95      101
     190        1      140       94      100      139
     191        1      140      100       94      139
     192        1      140      139       94      100
     193        1      146      189      308      845
     194        1      146      308      189      845
     195        1      146      845      189      308
     196        1      149      167      192      199
     197        1      149      192      167      199
     198        1      149      199      167      192
     199        1      152      183      201      374
     200        1      152      201      183      374
     201        1      152      374      183      201
     202        1      155       17      186      203
     203        1      155      186       17      203
     204        1      155      203       17      186
     205        1      158      177      205      584
     206        1      158      205      177      584
     207        1      158      584      177      205
     208        1      161       83      180      207
     209        1      161      180       83      207
     210        1      161      207       83      180
     211        1      164      171      434      857
     212        1      164      434      171      857
     213        1      164      857      171      434
     214        1      167      149      174      211
     215        1      167      174      149      211
     216        1      167      211      149      174
     217        1      170      165      209      476
     218        1      170      209      165      476
     219        1      170      476      165      209
     220        1      173      168      191      211
     221        1      173      191      168      211
     222        1      173      211      168      191
     223        1      176      159      614      853
     224        1      176      614      159      853
     225        1      176      853      159      614
     226        1      179      113      162      207
     227        1      179      162      113      207
     228        1      179      207      113      162
     229        1      182      153      392      849
     230        1      182      392      153      849
     231        1      182      849      153      392
     232        1      185       35      156      203
     233        1      185      156       35      203
     234        1      185      203       35      156
     235        1      188      147      197      314
     236        1      188      197      147      314
     237        1      188      314      147      197
     238        1      191      150      173      199
     239        1      191      173      150      199
     240        1      191      199      150      173
     241        1      197      188      198     1442
     242        1      197      198      188     1442
     243        1      197     1442      188      198
     244        1      198      145      197     1483
     245        1      198      197      145     1483
     246        1      198     1483      145      197
     247        1      199      149      191      200
     248        1      199      191      149      200
     249        1      199      200      149      191
     250        1      200      148      190      199
     251        1      200      190      148      199
     252        1      200      199      148      190
     253        1      201      152      202     1478
     254        1      201      202      152     1478
     255        1      201     1478      152      202
     256        1      202      181      201     1447
     257        1      202      201      181     1447
     258        1      202     1447      181      201
     259        1      203      155      185      204
     260        1      203      185      155      204
     261        1      203      204      155      185
     262        1      204      154      184      203
     263        1      204      184      154      203
     264        1      204      203      154      184
     265        1      205      158      206     1472
     266        1      205      206      158     1472
     267        1      205     1472      158      206
     268        1      206      175      205     1453
     269        1      206      205      175     1453
     270        1      206     1453      175      205
     271        1      207      161      179      208
     272        1      207      179      161      208
     273        1      207      208      161      179
     274        1      208      160      178      207
     275        1      208      178      160      207
     276        1      208      207      160      178
     277        1      209      170      210     1460
     278        1      209      210      170     1460
     279        1      209     1460      170      210
     280        1      210      163      209     1465
     281        1      210      209      163     1465
     282        1      210     1465      163      209
     283        1      211      167      173      212
     284        1      211      173      167      212
     285        1      211      212      167      173
     286        1      212      166      172      211
     287        1      212      172      166      211
     288        1      212      211      166      172
     289        1      218      261      596      917
     290        1      218      596      261      917
     291        1      218      917      261      596
     292        1      221      239      264      271
     293        1      221      264      239      271
     294        1      221      271      239      264
     295        1      224      255      273      446
     296        1      224      273      255      446
     297        1      224      446      255      273
     298        1      227      258      275      305
     299        1      227      275      258      305
     300        1      227      305      258      275
     301        1      230        8      249      277
     302        1      230      249        8      277
     303        1      230      277        8      249
     304        1      233      252      279      371
     305        1      233      279      252      371
     306        1      233      371      252      279
     307        1      236       74      243      929
     308        1      236      243       74      929
     309        1      236      929       74      243
     310        1      239      221      246      283
     311        1      239      246      221      283
     312        1      239      283      221      246
     313        1      242      116      237      281
     314        1      242      237      116      281
     315        1      242      281      116      237
     316        1      245      240      263      283
     317        1      245      263      240      283
     318        1      245      283      240      263
     319        1      248       38      231      925
     320        1      248      231       38      925
     321        1      248      925       38      231
     322        1      251      234      279      401
     323        1      251      279      234      401
     324        1      251      401      234      279
     325        1      254      225      464      921
     326        1      254      464      225      921
     327        1      254      921      225      464
     328        1      257      228      275      323
     329        1      257      275      228      323
     330        1      257      323      228      275
     331        1      260      219      269      602
     332        1      260      269      219      602
     333        1      260      602      219      269
     334        1      263      222      245      271
     335        1      263      245      222      271
     336        1      263      271      222      245
     337        1      269      260      270     1514
     338        1      269      270      260     1514
     339        1      269     1514      260      270
     340        1      270      217      269     1555
     341        1      270      269      217     1555
     342        1      270     1555      217      269
     343        1      271      221      263      272
     344        1      271      263      221      272
     345        1      271      272      221      263
     346        1      272      220      262      271
     347        1      272      262      220      271
     348        1      272      271      220      262
     349        1      273      224      274     1550
     350        1      273      274      224     1550
     351        1      273     1550      224      274
     352        1      274      253      273     1519
     353        1      274      273      253     1519
     354        1      274     1519      253      273
     355        1      275      227      257      276
     356        1      275      257      227      276
     357        1      275      276      227      257
     358        1      276      226      256      275
     359        1      276      256      226      275
     360        1      276      275      226      256
     361        1      277      230      278     1544
     362        1      277      278      230     1544
     363        1      277     1544      230      278
     364        1      278      247      277     1525
     365        1      278      277      247     1525
     366        1      278     1525      247      277
     367        1      279      233      251      280
     368        1      279      251      233      280
     369        1      279      280      233      251
     370        1      280      232      250      279
     371        1      280      250      232      279
     372        1      280      279      232      250
     373        1      281      242      282     1532
     374        1      281      282      242     1532
     375        1      281     1532      242      282
     376        1      282      235      281     1537
     377        1      282      281      235     1537
     378        1      282     1537      235      281
     379        1      283      239      245      284
     380        1      283      245      239      284
     381        1      283      284      239      245
     382        1      284      238      244      283
     383        1      284      244      238      283
     384        1      284      283      238      244
     385        1      290      333      452      989
     386        1      290      452      333      989
     387        1      290      989      333      452
     388        1      293      311      336      343
     389        1      293      336      311      343
     390        1      293      343      311      336
     391        1      296      327      345      518
     392        1      296      345      327      518
     393        1      296      518      327      345
     394        1      299      330      347      377
     395        1      299      347      330      377
     396        1      299      377      330      347
     397        1      302       80      321      349
     398        1      302      321       80      349
     399        1      302      349       80      321
     400        1      305      227      324      351
     401        1      305      324      227      351
     402        1      305      351      227      324
     403        1      308      146      315     1001
     404        1      308      315      146     1001
     405        1      308     1001      146      315
     406        1      311      293      318      355
     407        1      311      318      293      355
     408        1      311      355      293      318
     409        1      314      188      309      353
     410        1      314      309      188      353
     411        1      314      353      188      309
     412        1      317      312      335      355
     413        1      317      335      312      355
     414        1      317      355      312      335
     415        1      320      110      303      997
     416        1      320      303      110      997
     417        1      320      997      110      303
     418        1      323      257      306      351
     419        1      323      306      257      351
     420        1      323      351      257      306
     421        1      326      297      536      993
     422        1      326      536      297      993
     423        1      326      993      297      536
     424        1      329      300      347      395
     425        1      329      347      300      395
     426        1      329      395      300      347
     427        1      332      291      341      458
     428        1      332      341      291      458
     429        1      332      458      291      341
     430        1      335      294      317      343
     431        1      335      317      294      343
     432        1      335      343      294      317
     433        1      341      332      342     1586
     434        1      341      342      332     1586
     435        1      341     1586      332      342
     436        1      342      289      341     1627
     437        1      342      341      289     1627
     438        1      342     1627      289      341
     439        1      343      293      335      344
     440        1      343      335      293      344
     441        1      343      344      293      335
     442        1      344      292      334      343
     443        1      344      334      292      343
     444        1      344      343      292      334
     445        1      345      296      346     1622
     446        1      345      346      296     1622
     447        1      345     1622      296      346
     448        1      346      325      345     1591
     449        1      346      345      325     1591
     450        1      346     1591      325      345
     451        1      347      299      329      348
     452        1      347      329      299      348
     453        1      347      348      299      329
     454        1      348      298      328      347
     455        1      348      328      298      347
     456        1      348      347      298      328
     457        1      349      302      350     1616
     458        1      349      350      302     1616
     459        1      349     1616      302      350
     460        1      350      319      349     1597
     461        1      350      349      319     1597
     462        1      350     1597      319      349
     463        1      351      305      323      352
     464        1      351      323      305      352
     465        1      351      352      305      323
     466        1      352      304      322      351
     467        1      352      322      304      351
     468        1      352      351      304      322
     469        1      353      314      354     1604
     470        1      353      354      314     1604
     471        1      353     1604      314      354
     472        1      354      307      353     1609
     473        1      354      353      307     1609
     474        1      354     1609      307      353
     475        1      355      311      317      356
     476        1      355      317      311      356
     477        1      355      356      311      317
     478        1      356      310      316      355
     479        1      356      316      310      355
     480        1      356      355      310      316
     481        1      362      405      524     1061
     482        1      362      524      405     1061
     483        1      362     1061      405      524
     484        1      365      383      408      415
     485        1      365      408      383      415
     486        1      365      415      383      408
     487        1      368      399      417      590
     488        1      368      417      399      590
     489        1      368      590      399      417
     490        1      371      233      402      419
     491        1      371      402      233      419
     492        1      371      419      233      402
     493        1      374      152      393      421
     494        1      374      393      152      421
     495        1      374      421      152      393
     496        1      377      299      396      423
     497        1      377      396      299      423
     498        1      377      423      299      396
     499        1      380        2      387     1073
     500        1      380      387        2     1073
     501        1      380     1073        2      387
     502        1      383      365      390      427
     503        1      383      390      365      427
     504        1      383      427      365      390
     505        1      386       44      381      425
     506        1      386      381       44      425
     507        1      386      425       44      381
     508        1      389      384      407      427
     509        1      389      407      384      427
     510        1      389      427      384      407
     511        1      392      182      375     1069
     512        1      392      375      182     1069
     513        1      392     1069      182      375
     514        1      395      329      378      423
     515        1      395      378      329      423
     516        1      395      423      329      378
     517        1      398      369      608     1065
     518        1      398      608      369     1065
     519        1      398     1065      369      608
     520        1      401      251      372      419
     521        1      401      372      251      419
     522        1      401      419      251      372
     523        1      404      363      413      530
     524        1      404      413      363      530
     525        1      404      530      363      413
     526        1      407      366      389      415
     527        1      407      389      366      415
     528        1      407      415      366      389
     529        1      413      404      414     1658
     530        1      413      414      404     1658
     531        1      413     1658      404      414
     532        1      414      361      413     1699
     533        1      414      413      361     1699
     534        1      414     1699      361      413
     535        1      415      365      407      416
     536        1      415      407      365      416
     537        1      415      416      365      407
     538        1      416      364      406      415
     539        1      416      406      364      415
     540        1      416      415      364      406
     541        1      417      368      418     1694
     542        1      417      418      368     1694
     543        1      417     1694      368      418
     544        1      418      397      417     1663
     545        1      418      417      397     1663
     546        1      418     1663      397      417
     547        1      419      371      401      420
     548        1      419      401      371      420
     549        1      419      420      371      401
     550        1      420      370      400      419
     551        1      420      400      370      419
     552        1      420      419      370      400
     553        1      421      374      422     1688
     554        1      421      422      374     1688
     555        1      421     1688      374      422
     556        1      422      391      421     1669
     557        1      422      421      391     1669
     558        1      422     1669      391      421
     559        1      423      377      395      424
     560        1      423      395      377      424
     561        1      423      424      377      395
     562        1      424      376      394      423
     563        1      424      394      376      423
     564        1      424      423      376      394
     565        1      425      386      426     1676
     566        1      425      426      386     1676
     567        1      425     1676      386      426
     568        1      426      379      425     1681
     569        1      426      425      379     1681
     570        1      426     1681      379      425
     571        1      427      383      389      428
     572        1      427      389      383      428
     573        1      427      428      383      389
     574        1      428      382      388      427
     575        1      428      388      382      427
     576        1      428      427      382      388
     577        1      434      164      477     1133
     578        1      434      477      164     1133
     579        1      434     1133      164      477
     580        1      437      455      480      487
     581        1      437      480      455      487
     582        1      437      487      455      480
     583        1      440       14      471      489
     584        1      440      471       14      489
     585        1      440      489       14      471
     586        1      443      474      491      521
     587        1      443      491      474      521
     588        1      443      521      474      491
     589        1      446      224      465      493
     590        1      446      465      224      493
     591        1      446      493      224      465
     592        1      449      468      495      587
     593        1      449      495      468      587
     594        1      449      587      468      495
     595        1      452      290      459     1145
     596        1      452      459      290     1145
     597        1      452     1145      290      459
     598        1      455      437      462      499
     599        1      455      462      437      499
     600        1      455      499      437      462
     601        1      458      332      453      497
     602        1      458      453      332      497
     603        1      458      497      332      453
     604        1      461      456      479      499
     605        1      461      479      456      499
     606        1      461      499      456      479
     607        1      464      254      447     1141
     608        1      464      447      254     1141
     609        1      464     1141      254      447
     610        1      467      450      495      617
     611        1      467      495      450      617
     612        1      467      617      450      495
     613        1      470       32      441     1137
     614        1      470      441       32     1137
     615        1      470     1137       32      441
     616        1      473      444      491      539
     617        1      473      491      444      539
     618        1      473      539      444      491
     619        1      476      170      435      485
     620        1      476      435      170      485
     621        1      476      485      170      435
     622        1      479      438      461      487
     623        1      479      461      438      487
     624        1      479      487      438      461
     625        1      485      476      486     1730
     626        1      485      486      476     1730
     627        1      485     1730      476      486
     628        1      486      433      485     1771
     629        1      486      485      433     1771
     630        1      486     1771      433      485
     631        1      487      437      479      488
     632        1      487      479      437      488
     633        1      487      488      437      479
     634        1      488      436      478      487
     635        1      488      478      436      487
     636        1      488      487      436      478
     637        1      489      440      490     1766
     638        1      489      490      440     1766
     639        1      489     1766      440      490
     640        1      490      469      489     1735
     641        1      490      489      469     1735
     642        1      490     1735      469      489
     643        1      491      443      473      492
     644        1      491      473      443      492
     645        1      491      492      443      473
     646        1      492      442      472      491
     647        1      492      472      442      491
     648        1      492      491      442      472
     649        1      493      446      494     1760
     650        1      493      494      446     1760
     651        1      493     1760      446      494
     652        1      494      463      493     1741
     653        1      494      493      463     1741
     654        1      494     1741      463      493
     655        1      495      449      467      496
     656        1      495      467      449      496
     657        1      495      496      449      467
     658        1      496      448      466      495
     659        1      496      466      448      495
     660        1      496      495      448      466
     661        1      497      458      498     1748
     662        1      497      498      458     1748
     663        1      497     1748      458      498
     664        1      498      451      497     1753
     665        1      498      497      451     1753
     666        1      498     1753      451      497
     667        1      499      455      461      500
     668        1      499      461      455      500
     669        1      499      500      455      461
     670        1      500      454      460      499
     671        1      500      460      454      499
     672        1      500      499      454      460
     673        1      506       20      549     1205
     674        1      506      549       20     1205
     675        1      506     1205       20      549
     676        1      509      527      552      559
     677        1      509      552      527      559
     678        1      509      559      527      552
     679        1      512       86      543      561
     680        1      512      543       86      561
     681        1      512      561       86      543
     682        1      515      546      563      593
     683        1      515      563      546      593
     684        1      515      593      546      563
     685        1      518      296      537      565
     686        1      518      537      296      565
     687        1      518      565      296      537
     688        1      521      443      540      567
     689        1      521      540      443      567
     690        1      521      567      443      540
     691        1      524      362      531     1217
     692        1      524      531      362     1217
     693        1      524     1217      362      531
     694        1      527      509      534      571
     695        1      527      534      509      571
     696        1      527      571      509      534
     697        1      530      404      525      569
     698        1      530      525      404      569
     699        1      530      569      404      525
     700        1      533      528      551      571
     701        1      533      551      528      571
     702        1      533      571      528      551
     703        1      536      326      519     1213
     704        1      536      519      326     1213
     705        1      536     1213      326      519
     706        1      539      473      522      567
     707        1      539      522      473      567
     708        1      539      567      473      522
     709        1      542      104      513     1209
     710        1      542      513      104     1209
     711        1      542     1209      104      513
     712        1      545      516      563      611
     713        1      545      563      516      611
     714        1      545      611      516      563
     715        1      548       26      507      557
     716        1      548      507       26      557
     717        1      548      557       26      507
     718        1      551      510      533      559
     719        1      551      533      510      559
     720        1      551      559      510      533
     721        1      557      548      558     1802
     722        1      557      558      548     1802
     723        1      557     1802      548      558
     724        1      558      505      557     1843
     725        1      558      557      505     1843
     726        1      558     1843      505      557
     727        1      559      509      551      560
     728        1      559      551      509      560
     729        1      559      560      509      551
     730        1      560      508      550      559
     731        1      560      550      508      559
     732        1      560      559      508      550
     733        1      561      512      562     1838
     734        1      561      562      512     1838
     735        1      561     1838      512      562
     736        1      562      541      561     1807
     737        1      562      561      541     1807
     738        1      562     1807      541      561
     739        1      563      515      545      564
     740        1      563      545      515      564
     741        1      563      564      515      545
     742        1      564      514      544      563
     743        1      564      544      514      563
     744        1      564      563      514      544
     745        1      565      518      566     1832
     746        1      565      566      518     1832
     747        1      565     1832      518      566
     748        1      566      535      565     1813
     749        1      566      565      535     1813
     750        1      566     1813      535      565
     751        1      567      521      539      568
     752        1      567      539      521      568
     753        1      567      568      521      539
     754        1      568      520      538      567
     755        1      568      538      520      567
     756        1      568      567      520      538
     757        1      569      530      570     1820
     758        1      569      570      530     1820
     759        1      569     1820      530      570
     760        1      570      523      569     1825
     761        1      570      569      523     1825
     762        1      570     1825      523      569
     763        1      571      527      533      572
     764        1      571      533      527      572
     765        1      571      572      527      533
     766        1      572      526      532      571
     767        1      572      532      526      571
     768        1      572      571      526      532
     769        1      578       92      621     1277
     770        1      578      621       92     1277
     771        1      578     1277       92      621
     772        1      581      599      624      631
     773        1      581      624      599      631
     774        1      581      631      599      624
     775        1      584      158      615      633
     776        1      584      615      158      633
     777        1      584      633      158      615
     778        1      587      449      618      635
     779        1      587      618      449      635
     780        1      587      635      449      618
     781        1      590      368      609      637
     782        1      590      609      368      637
     783        1      590      637      368      609
     784        1      593      515      612      639
     785        1      593      612      515      639
     786        1      593      639      515      612
     787        1      596      218      603     1289
     788        1      596      603      218     1289
     789        1      596     1289      218      603
     790        1      599      581      606      643
     791        1      599      606      581      643
     792        1      599      643      581      606
     793        1      602      260      597      641
     794        1      602      597      260      641
     795        1      602      641      260      597
     796        1      605      600      623      643
     797        1      605      623      600      643
     798        1      605      643      600      623
     799        1      608      398      591     1285
     800        1      608      591      398     1285
     801        1      608     1285      398      591
     802        1      611      545      594      639
     803        1      611      594      545      639
     804        1      611      639      545      594
     805        1      614      176      585     1281
     806        1      614      585      176     1281
     807        1      614     1281      176      585
     808        1      617      467      588      635
     809        1      617      588      467      635
     810        1      617      635      467      588
     811        1      620       98      579      629
     812        1      620      579       98      629
     813        1      620      629       98      579
     814        1      623      582      605      631
     815        1      623      605      582      631
     816        1      623      631      582      605
     817        1      629      620      630     1874
     818        1      629      630      620     1874
     819        1      629     1874      620      630
     820        1      630      577      629     1915
     821        1      630      629      577     1915
     822        1      630     1915      577      629
     823        1      631      581      623      632
     824        1      631      623      581      632
     825        1      631      632      581      623
     826        1      632      580      622      631
     827        1      632      622      580      631
     828        1      632      631      580      622
     829        1      633      584      634     1910
     830        1      633      634      584     1910
     831        1      633     1910      584      634
     832        1      634      613      633     1879
     833        1      634      633      613     1879
     834        1      634     1879      613      633
     835        1      635      587      617      636
     836        1      635      617      587      636
     837        1      635      636      587      617
     838        1      636      586      616      635
     839        1      636      616      586      635
     840        1      636      635      586      616
     841        1      637      590      638     1904
     842        1      637      638      590     1904
     843        1      637     1904      590      638
     844        1      638      607      637     1885
     845        1      638      637      607     1885
     846        1      638     1885      607      637
     847        1      639      593      611      640
     848        1      639      611      593      640
     849        1      639      640      593      611
     850        1      640      592      610      639
     851        1      640      610      592      639
     852        1      640      639      592      610
     853        1      641      602      642     1892
     854        1      641      642      602     1892
     855        1      641     1892      602      642
     856        1      642      595      641     1897
     857        1      642      641      595     1897
     858        1      642     1897      595      641
     859        1      643      599      605      644
     860        1      643      605      599      644
     861        1      643      644      599      605
     862        1      644      598      604      643
     863        1      644      604      598      643
     864        1      644      643      598      604
     865        1      650      693     1028     1349
     866        1      650     1028      693     1349
     867        1      650     1349      693     1028
     868        1      653      671      696      703
     869        1      653      696      671      703
     870        1      653      703      671      696
     871        1      656      687      705      878
     872        1      656      705      687      878
     873        1      656      878      687      705
     874        1      659      690      707      737
     875        1      659      707      690      737
     876        1      659      737      690      707
     877        1      662      681      709     1088
     878        1      662      709      681     1088
     879        1      662     1088      681      709
     880        1      665      684      711      803
     881        1      665      711      684      803
     882        1      665      803      684      711
     883        1      668      675     1154     1361
     884        1      668     1154      675     1361
     885        1      668     1361      675     1154
     886        1      671      653      678      715
     887        1      671      678      653      715
     888        1      671      715      653      678
     889        1      674      669      713     1196
     890        1      674      713      669     1196
     891        1      674     1196      669      713
     892        1      677      672      695      715
     893        1      677      695      672      715
     894        1      677      715      672      695
     895        1      680      663     1118     1357
     896        1      680     1118      663     1357
     897        1      680     1357      663     1118
     898        1      683      666      711      833
     899        1      683      711      666      833
     900        1      683      833      666      711
     901        1      686      657      896     1353
     902        1      686      896      657     1353
     903        1      686     1353      657      896
     904        1      689      660      707      755
     905        1      689      707      660      755
     906        1      689      755      660      707
     907        1      692      651      701     1034
     908        1      692      701      651     1034
     909        1      692     1034      651      701
     910        1      695      654      677      703
     911        1      695      677      654      703
     912        1      695      703      654      677
     913        1      701        2      692      702
     914        1      701      692        2      702
     915        1      701      702        2      692
     916        1      702       43      649      701
     917        1      702      649       43      701
     918        1      702      701       43      649
     919        1      703      653      695      704
     920        1      703      695      653      704
     921        1      703      704      653      695
     922        1      704      652      694      703
     923        1      704      694      652      703
     924        1      704      703      652      694
     925        1      705       38      656      706
     926        1      705      656       38      706
     927        1      705      706       38      656
     928        1      706        7      685      705
     929        1      706      685        7      705
     930        1      706      705        7      685
     931        1      707      659      689      708
     932        1      707      689      659      708
     933        1      707      708      659      689
     934        1      708      658      688      707
     935        1      708      688      658      707
     936        1      708      707      658      688
     937        1      709       32      662      710
     938        1      709      662       32      710
     939        1      709      710       32      662
     940        1      710       13      679      709
     941        1      710      679       13      709
     942        1      710      709       13      679
     943        1      711      665      683      712
     944        1      711      683      665      712
     945        1      711      712      665      683
     946        1      712      664      682      711
     947        1      712      682      664      711
     948        1      712      711      664      682
     949        1      713       20      674      714
     950        1      713      674       20      714
     951        1      713      714       20      674
     952        1      714       25      667      713
     953        1      714      667       25      713
     954        1      714      713       25      667
     955        1      715      671      677      716
     956        1      715      677      671      716
     957        1      715      716      671      677
     958        1      716      670      676      715
     959        1      716      676      670      715
     960        1      716      715      670      676
     961        1      722      765      884     1421
     962        1      722      884      765     1421
     963        1      722     1421      765      884
     964        1      725      743      768      775
     965        1      725      768      743      775
     966        1      725      775      743      768
     967        1      728      759      777      950
     968        1      728      777      759      950
     969        1      728      950      759      777
     970        1      731      762      779      809
     971        1      731      779      762      809
     972        1      731      809      762      779
     973        1      734      753      781     1160
     974        1      734      781      753     1160
     975        1      734     1160      753      781
     976        1      737      659      756      783
     977        1      737      756      659      783
     978        1      737      783      659      756
     979        1      740      747     1226     1433
     980        1      740     1226      747     1433
     981        1      740     1433      747     1226
     982        1      743      725      750      787
     983        1      743      750      725      787
     984        1      743      787      725      750
     985        1      746      741      785     1268
     986        1      746      785      741     1268
     987        1      746     1268      741      785
     988        1      749      744      767      787
     989        1      749      767      744      787
     990        1      749      787      744      767
     991        1      752      735     1190     1429
     992        1      752     1190      735     1429
     993        1      752     1429      735     1190
     994        1      755      689      738      783
     995        1      755      738      689      783
     996        1      755      783      689      738
     997        1      758      729      968     1425
     998        1      758      968      729     1425
     999        1      758     1425      729      968
    1000        1      761      732      779      827
    1001        1      761      779      732      827
    1002        1      761      827      732      779
    1003        1      764      723      773      890
    1004        1      764      773      723      890
    1005        1      764      890      723      773
    1006        1      767      726      749      775
    1007        1      767      749      726      775
    1008        1      767      775      726      749
    1009        1      773       74      764      774
    1010        1      773      764       74      774
    1011        1      773      774       74      764
    1012        1      774      115      721      773
    1013        1      774      721      115      773
    1014        1      774      773      115      721
    1015        1      775      725      767      776
    1016        1      775      767      725      776
    1017        1      775      776      725      767
    1018        1      776      724      766      775
    1019        1      776      766      724      775
    1020        1      776      775      724      766
    1021        1      777      110      728      778
    1022        1      777      728      110      778
    1023        1      777      778      110      728
    1024        1      778       79      757      777
    1025        1      778      757       79      777
    1026        1      778      777       79      757
    1027        1      779      731      761      780
    1028        1      779      761      731      780
    1029        1      779      780      731      761
    1030        1      780      730      760      779
    1031        1      780      760      730      779
    1032        1      780      779      730      760
    1033        1      781      104      734      782
    1034        1      781      734      104      782
    1035        1      781      782      104      734
    1036        1      782       85      751      781
    1037        1      782      751       85      781
    1038        1      782      781       85      751
    1039        1      783      737      755      784
    1040        1      783      755      737      784
    1041        1      783      784      737      755
    1042        1      784      736      754      783
    1043        1      784      754      736      783
    1044        1      784      783      736      754
    1045        1      785       92      746      786
    1046        1      785      746       92      786
    1047        1      785      786       92      746
    1048        1      786       97      739      785
    1049        1      786      739       97      785
    1050        1      786      785       97      739
    1051        1      787      743      749      788
    1052        1      787      749      743      788
    1053        1      787      788      743      749
    1054        1      788      742      748      787
    1055        1      788      748      742      787
    1056        1      788      787      742      748
    1057        1      794      837      956     1493
    1058        1      794      956      837     1493
    1059        1      794     1493      837      956
    1060        1      797      815      840      847
    1061        1      797      840      815      847
    1062        1      797      847      815      840
    1063        1      800      831      849     1022
    1064        1      800      849      831     1022
    1065        1      800     1022      831      849
    1066        1      803      665      834      851
    1067        1      803      834      665      851
    1068        1      803      851      665      834
    1069        1      806      825      853     1232
    1070        1      806      853      825     1232
    1071        1      806     1232      825      853
    1072        1      809      731      828      855
    1073        1      809      828      731      855
    1074        1      809      855      731      828
    1075        1      812      819     1082     1505
    1076        1      812     1082      819     1505
    1077        1      812     1505      819     1082
    1078        1      815      797      822      859
    1079        1      815      822      797      859
    1080        1      815      859      797      822
    1081        1      818      813      857     1124
    1082        1      818      857      813     1124
    1083        1      818     1124      813      857
    1084        1      821      816      839      859
    1085        1      821      839      816      859
    1086        1      821      859      816      839
    1087        1      824      807     1262     1501
    1088        1      824     1262      807     1501
    1089        1      824     1501      807     1262
    1090        1      827      761      810      855
    1091        1      827      810      761      855
    1092        1      827      855      761      810
    1093        1      830      801     1040     1497
    1094        1      830     1040      801     1497
    1095        1      830     1497      801     1040
    1096        1      833      683      804      851
    1097        1      833      804      683      851
    1098        1      833      851      683      804
    1099        1      836      795      845      962
    1100        1      836      845      795      962
    1101        1      836      962      795      845
    1102        1      839      798      821      847
    1103        1      839      821      798      847
    1104        1      839      847      798      821
    1105        1      845      146      836      846
    1106        1      845      836      146      846
    1107        1      845      846      146      836
    1108        1      846      187      793      845
    1109        1      846      793      187      845
    1110        1      846      845      187      793
    1111        1      847      797      839      848
    1112        1      847      839      797      848
    1113        1      847      848      797      839
    1114        1      848      796      838      847
    1115        1      848      838      796      847
    1116        1      848      847      796      838
    1117        1      849      182      800      850
    1118        1      849      800      182      850
    1119        1      849      850      182      800
    1120        1      850      151      829      849
    1121        1      850      829      151      849
    1122        1      850      849      151      829
    1123        1      851      803      833      852
    1124        1      851      833      803      852
    1125        1      851      852      803      833
    1126        1      852      802      832      851
    1127        1      852      832      802      851
    1128        1      852      851      802      832
    1129        1      853      176      806      854
    1130        1      853      806      176      854
    1131        1      853      854      176      806
    1132        1      854      157      823      853
    1133        1      854      823      157      853
    1134        1      854      853      157      823
    1135        1      855      809      827      856
    1136        1      855      827      809      856
    1137        1      855      856      809      827
    1138        1      856      808      826      855
    1139        1      856      826      808      855
    1140        1      856      855      808      826
    1141        1      857      164      818      858
    1142        1      857      818      164      858
    1143        1      857      858      164      818
    1144        1      858      169      811      857
    1145        1      858      811      169      857
    1146        1      858      857      169      811
    1147        1      859      815      821      860
    1148        1      859      821      815      860
    1149        1      859      860      815      821
    1150        1      860      814      820      859
    1151        1      860      820      814      859
    1152        1      860      859      814      820
    1153        1      866      909     1244     1565
    1154        1      866     1244      909     1565
    1155        1      866     1565      909     1244
    1156        1      869      887      912      919
    1157        1      869      912      887      919
    1158        1      869      919      887      912
    1159        1      872      903      921     1094
    1160        1      872      921      903     1094
    1161        1      872     1094      903      921
    1162        1      875      906      923      953
    1163        1      875      923      906      953
    1164        1      875      953      906      923
    1165        1      878      656      897      925
    1166        1      878      897      656      925
    1167        1      878      925      656      897
    1168        1      881      900      927     1019
    1169        1      881      927      900     1019
    1170        1      881     1019      900      927
    1171        1      884      722      891     1577
    1172        1      884      891      722     1577
    1173        1      884     1577      722      891
    1174        1      887      869      894      931
    1175        1      887      894      869      931
    1176        1      887      931      869      894
    1177        1      890      764      885      929
    1178        1      890      885      764      929
    1179        1      890      929      764      885
    1180        1      893      888      911      931
    1181        1      893      911      888      931
    1182        1      893      931      888      911
    1183        1      896      686      879     1573
    1184        1      896      879      686     1573
    1185        1      896     1573      686      879
    1186        1      899      882      927     1049
    1187        1      899      927      882     1049
    1188        1      899     1049      882      927
    1189        1      902      873     1112     1569
    1190        1      902     1112      873     1569
    1191        1      902     1569      873     1112
    1192        1      905      876      923      971
    1193        1      905      923      876      971
    1194        1      905      971      876      923
    1195        1      908      867      917     1250
    1196        1      908      917      867     1250
    1197        1      908     1250      867      917
    1198        1      911      870      893      919
    1199        1      911      893      870      919
    1200        1      911      919      870      893
    1201        1      917      218      908      918
    1202        1      917      908      218      918
    1203        1      917      918      218      908
    1204        1      918      259      865      917
    1205        1      918      865      259      917
    1206        1      918      917      259      865
    1207        1      919      869      911      920
    1208        1      919      911      869      920
    1209        1      919      920      869      911
    1210        1      920      868      910      919
    1211        1      920      910      868      919
    1212        1      920      919      868      910
    1213        1      921      254      872      922
    1214        1      921      872      254      922
    1215        1      921      922      254      872
    1216        1      922      223      901      921
    1217        1      922      901      223      921
    1218        1      922      921      223      901
    1219        1      923      875      905      924
    1220        1      923      905      875      924
    1221        1      923      924      875      905
    1222        1      924      874      904      923
    1223        1      924      904      874      923
    1224        1      924      923      874      904
    1225        1      925      248      878      926
    1226        1      925      878      248      926
    1227        1      925      926      248      878
    1228        1      926      229      895      925
    1229        1      926      895      229      925
    1230        1      926      925      229      895
    1231        1      927      881      899      928
    1232        1      927      899      881      928
    1233        1      927      928      881      899
    1234        1      928      880      898      927
    1235        1      928      898      880      927
    1236        1      928      927      880      898
    1237        1      929      236      890      930
    1238        1      929      890      236      930
    1239        1      929      930      236      890
    1240        1      930      241      883      929
    1241        1      930      883      241      929
    1242        1      930      929      241      883
    1243        1      931      887      893      932
    1244        1      931      893      887      932
    1245        1      931      932      887      893
    1246        1      932      886      892      931
    1247        1      932      892      886      931
    1248        1      932      931      886      892
    1249        1      938      981     1100     1637
    1250        1      938     1100      981     1637
    1251        1      938     1637      981     1100
    1252        1      941      959      984      991
    1253        1      941      984      959      991
    1254        1      941      991      959      984
    1255        1      944      975      993     1166
    1256        1      944      993      975     1166
    1257        1      944     1166      975      993
    1258        1      947      978      995     1025
    1259        1      947      995      978     1025
    1260        1      947     1025      978      995
    1261        1      950      728      969      997
    1262        1      950      969      728      997
    1263        1      950      997      728      969
    1264        1      953      875      972      999
    1265        1      953      972      875      999
    1266        1      953      999      875      972
    1267        1      956      794      963     1649
    1268        1      956      963      794     1649
    1269        1      956     1649      794      963
    1270        1      959      941      966     1003
    1271        1      959      966      941     1003
    1272        1      959     1003      941      966
    1273        1      962      836      957     1001
    1274        1      962      957      836     1001
    1275        1      962     1001      836      957
    1276        1      965      960      983     1003
    1277        1      965      983      960     1003
    1278        1      965     1003      960      983
    1279        1      968      758      951     1645
    1280        1      968      951      758     1645
    1281        1      968     1645      758      951
    1282        1      971      905      954      999
    1283        1      971      954      905      999
    1284        1      971      999      905      954
    1285        1      974      945     1184     1641
    1286        1      974     1184      945     1641
    1287        1      974     1641      945     1184
    1288        1      977      948      995     1043
    1289        1      977      995      948     1043
    1290        1      977     1043      948      995
    1291        1      980      939      989     1106
    1292        1      980      989      939     1106
    1293        1      980     1106      939      989
    1294        1      983      942      965      991
    1295        1      983      965      942      991
    1296        1      983      991      942      965
    1297        1      989      290      980      990
    1298        1      989      980      290      990
    1299        1      989      990      290      980
    1300        1      990      331      937      989
    1301        1      990      937      331      989
    1302        1      990      989      331      937
    1303        1      991      941      983      992
    1304        1      991      983      941      992
    1305        1      991      992      941      983
    1306        1      992      940      982      991
    1307        1      992      982      940      991
    1308        1      992      991      940      982
    1309        1      993      326      944      994
    1310        1      993      944      326      994
    1311        1      993      994      326      944
    1312        1      994      295      973      993
    1313        1      994      973      295      993
    1314        1      994      993      295      973
    1315        1      995      947      977      996
    1316        1      995      977      947      996
    1317        1      995      996      947      977
    1318        1      996      946      976      995
    1319        1      996      976      946      995
    1320        1      996      995      946      976
    1321        1      997      320      950      998
    1322        1      997      950      320      998
    1323        1      997      998      320      950
    1324        1      998      301      967      997
    1325        1      998      967      301      997
    1326        1      998      997      301      967
    1327        1      999      953      971     1000
    1328        1      999      971      953     1000
    1329        1      999     1000      953      971
    1330        1     1000      952      970      999
    1331        1     1000      970      952      999
    1332        1     1000      999      952      970
    1333        1     1001      308      962     1002
    1334        1     1001      962      308     1002
    1335        1     1001     1002      308      962
    1336        1     1002      313      955     1001
    1337        1     1002      955      313     1001
    1338        1     1002     1001      313      955
    1339        1     1003      959      965     1004
    1340        1     1003      965      959     1004
    1341        1     1003     1004      959      965
    1342        1     1004      958      964     1003
    1343        1     1004      964      958     1003
    1344        1     1004     1003      958      964
    1345        1     1010     1053     1172     1709
    1346        1     1010     1172     1053     1709
    1347        1     1010     1709     1053     1172
    1348        1     1013     1031     1056     1063
    1349        1     1013     1056     1031     1063
    1350        1     1013     1063     1031     1056
    1351        1     1016     1047     1065     1238
    1352        1     1016     1065     1047     1238
    1353        1     1016     1238     1047     1065
    1354        1     1019      881     1050     1067
    1355        1     1019     1050      881     1067
    1356        1     1019     1067      881     1050
    1357        1     1022      800     1041     1069
    1358        1     1022     1041      800     1069
    1359        1     1022     1069      800     1041
    1360        1     1025      947     1044     1071
    1361        1     1025     1044      947     1071
    1362        1     1025     1071      947     1044
    1363        1     1028      650     1035     1721
    1364        1     1028     1035      650     1721
    1365        1     1028     1721      650     1035
    1366        1     1031     1013     1038     1075
    1367        1     1031     1038     1013     1075
    1368        1     1031     1075     1013     1038
    1369        1     1034      692     1029     1073
    1370        1     1034     1029      692     1073
    1371        1     1034     1073      692     1029
    1372        1     1037     1032     1055     1075
    1373        1     1037     1055     1032     1075
    1374        1     1037     1075     1032     1055
    1375        1     1040      830     1023     1717
    1376        1     1040     1023      830     1717
    1377        1     1040     1717      830     1023
    1378        1     1043      977     1026     1071
    1379        1     1043     1026      977     1071
    1380        1     1043     1071      977     1026
    1381        1     1046     1017     1256     1713
    1382        1     1046     1256     1017     1713
    1383        1     1046     1713     1017     1256
    1384        1     1049      899     1020     1067
    1385        1     1049     1020      899     1067
    1386        1     1049     1067      899     1020
    1387        1     1052     1011     1061     1178
    1388        1     1052     1061     1011     1178
    1389        1     1052     1178     1011     1061
    1390        1     1055     1014     1037     1063
    1391        1     1055     1037     1014     1063
    1392        1     1055     1063     1014     1037
    1393        1     1061      362     1052     1062
    1394        1     1061     1052      362     1062
    1395        1     1061     1062      362     1052
    1396        1     1062      403     1009     1061
    1397        1     1062     1009      403     1061
    1398        1     1062     1061      403     1009
    1399        1     1063     1013     1055     1064
    1400        1     1063     1055     1013     1064
    1401        1     1063     1064     1013     1055
    1402        1     1064     1012     1054     1063
    1403        1     1064     1054     1012     1063
    1404        1     1064     1063     1012     1054
    1405        1     1065      398     1016     1066
    1406        1     1065     1016      398     1066
    1407        1     1065     1066      398     1016
    1408        1     1066      367     1045     1065
    1409        1     1066     1045      367     1065
    1410        1     1066     1065      367     1045
    1411        1     1067     1019     1049     1068
    1412        1     1067     1049     1019     1068
    1413        1     1067     1068     1019     1049
    1414        1     1068     1018     1048     1067
    1415        1     1068     1048     1018     1067
    1416        1     1068     1067     1018     1048
    1417        1     1069      392     1022     1070
    1418        1     1069     1022      392     1070
    1419        1     1069     1070      392     1022
    1420        1     1070      373     1039     1069
    1421        1     1070     1039      373     1069
    1422        1     1070     1069      373     1039
    1423        1     1071     1025     1043     1072
    1424        1     1071     1043     1025     1072
    1425        1     1071     1072     1025     1043
    1426        1     1072     1024     1042     1071
    1427        1     1072     1042     1024     1071
    1428        1     1072     1071     1024     1042
    1429        1     1073      380     1034     1074
    1430        1     1073     1034      380     1074
    1431        1     1073     1074      380     1034
    1432        1     1074      385     1027     1073
    1433        1     1074     1027      385     1073
    1434        1     1074     1073      385     1027
    1435        1     1075     1031     1037     1076
    1436        1     1075     1037     1031     1076
    1437        1     1075     1076     1031     1037
    1438        1     1076     1030     1036     1075
    1439        1     1076     1036     1030     1075
    1440        1     1076     1075     1030     1036
    1441        1     1082      812     1125     1781
    1442        1     1082     1125      812     1781
    1443        1     1082     1781      812     1125
    1444        1     1085     1103     1128     1135
    1445        1     1085     1128     1103     1135
    1446        1     1085     1135     1103     1128
    1447        1     1088      662     1119     1137
    1448        1     1088     1119      662     1137
    1449        1     1088     1137      662     1119
    1450        1     1091     1122     1139     1169
    1451        1     1091     1139     1122     1169
    1452        1     1091     1169     1122     1139
    1453        1     1094      872     1113     1141
    1454        1     1094     1113      872     1141
    1455        1     1094     1141      872     1113
    1456        1     1097     1116     1143     1235
    1457        1     1097     1143     1116     1235
    1458        1     1097     1235     1116     1143
    1459        1     1100      938     1107     1793
    1460        1     1100     1107      938     1793
    1461        1     1100     1793      938     1107
    1462        1     1103     1085     1110     1147
    1463        1     1103     1110     1085     1147
    1464        1     1103     1147     1085     1110
    1465        1     1106      980     1101     1145
    1466        1     1106     1101      980     1145
    1467        1     1106     1145      980     1101
    1468        1     1109     1104     1127     1147
    1469        1     1109     1127     1104     1147
    1470        1     1109     1147     1104     1127
    1471        1     1112      902     1095     1789
    1472        1     1112     1095      902     1789
    1473        1     1112     1789      902     1095
    1474        1     1115     1098     1143     1265
    1475        1     1115     1143     1098     1265
    1476        1     1115     1265     1098     1143
    1477        1     1118      680     1089     1785
    1478        1     1118     1089      680     1785
    1479        1     1118     1785      680     1089
    1480        1     1121     1092     1139     1187
    1481        1     1121     1139     1092     1187
    1482        1     1121     1187     1092     1139
    1483        1     1124      818     1083     1133
    1484        1     1124     1083      818     1133
    1485        1     1124     1133      818     1083
    1486        1     1127     1086     1109     1135
    1487        1     1127     1109     1086     1135
    1488        1     1127     1135     1086     1109
    1489        1     1133      434     1124     1134
    1490        1     1133     1124      434     1134
    1491        1     1133     1134      434     1124
    1492        1     1134      475     1081     1133
    1493        1     1134     1081      475     1133
    1494        1     1134     1133      475     1081
    1495        1     1135     1085     1127     1136
    1496        1     1135     1127     1085     1136
    1497        1     1135     1136     1085     1127
    1498        1     1136     1084     1126     1135
    1499        1     1136     1126     1084     1135
    1500        1     1136     1135     1084     1126
    1501        1     1137      470     1088     1138
    1502        1     1137     1088      470     1138
    1503        1     1137     1138      470     1088
    1504        1     1138      439     1117     1137
    1505        1     1138     1117      439     1137
    1506        1     1138     1137      439     1117
    1507        1     1139     1091     1121     1140
    1508        1     1139     1121     1091     1140
    1509        1     1139     1140     1091     1121
    1510        1     1140     1090     1120     1139
    1511        1     1140     1120     1090     1139
    1512        1     1140     1139     1090     1120
    1513        1     1141      464     1094     1142
    1514        1     1141     1094      464     1142
    1515        1     1141     1142      464     1094
    1516        1     1142      445     1111     1141
    1517        1     1142     1111      445     1141
    1518        1     1142     1141      445     1111
    1519        1     1143     1097     1115     1144
    1520        1     1143     1115     1097     1144
    1521        1     1143     1144     1097     1115
    1522        1     1144     1096     1114     1143
    1523        1     1144     1114     1096     1143
    1524        1     1144     1143     1096     1114
    1525        1     1145      452     1106     1146
    1526        1     1145     1106      452     1146
    1527        1     1145     1146      452     1106
    1528        1     1146      457     1099     1145
    1529        1     1146     1099      457     1145
    1530        1     1146     1145      457     1099
    1531        1     1147     1103     1109     1148
    1532        1     1147     1109     1103     1148
    1533        1     1147     1148     1103     1109
    1534        1     1148     1102     1108     1147
    1535        1     1148     1108     1102     1147
    1536        1     1148     1147     1102     1108
    1537        1     1154      668     1197     1853
    1538        1     1154     1197      668     1853
    1539        1     1154     1853      668     1197
    1540        1     1157     1175     1200     1207
    1541        1     1157     1200     1175     1207
    1542        1     1157     1207     1175     1200
    1543        1     1160      734     1191     1209
    1544        1     1160     1191      734     1209
    1545        1     1160     1209      734     1191
    1546        1     1163     1194     1211     1241
    1547        1     1163     1211     1194     1241
    1548        1     1163     1241     1194     1211
    1549        1     1166      944     1185     1213
    1550        1     1166     1185      944     1213
    1551        1     1166     1213      944     1185
    1552        1     1169     1091     1188     1215
    1553        1     1169     1188     1091     1215
    1554        1     1169     1215     1091     1188
    1555        1     1172     1010     1179     1865
    1556        1     1172     1179     1010     1865
    1557        1     1172     1865     1010     1179
    1558        1     1175     1157     1182     1219
    1559        1     1175     1182     1157     1219
    1560        1     1175     1219     1157     1182
    1561        1     1178     1052     1173     1217
    1562        1     1178     1173     1052     1217
    1563        1     1178     1217     1052     1173
    1564        1     1181     1176     1199     1219
    1565        1     1181     1199     1176     1219
    1566        1     1181     1219     1176     1199
    1567        1     1184      974     1167     1861
    1568        1     1184     1167      974     1861
    1569        1     1184     1861      974     1167
    1570        1     1187     1121     1170     1215
    1571        1     1187     1170     1121     1215
    1572        1     1187     1215     1121     1170
    1573        1     1190      752     1161     1857
    1574        1     1190     1161      752     1857
    1575        1     1190     1857      752     1161
    1576        1     1193     1164     1211     1259
    1577        1     1193     1211     1164     1259
    1578        1     1193     1259     1164     1211
    1579        1     1196      674     1155     1205
    1580        1     1196     1155      674     1205
    1581        1     1196     1205      674     1155
    1582        1     1199     1158     1181     1207
    1583        1     1199     1181     1158     1207
    1584        1     1199     1207     1158     1181
    1585        1     1205      506     1196     1206
    1586        1     1205     1196      506     1206
    1587        1     1205     1206      506     1196
    1588        1     1206      547     1153     1205
    1589        1     1206     1153      547     1205
    1590        1     1206     1205      547     1153
    1591        1     1207     1157     1199     1208
    1592        1     1207     1199     1157     1208
    1593        1     1207     1208     1157     1199
    1594        1     1208     1156     1198     1207
    1595        1     1208     1198     1156     1207
    1596        1     1208     1207     1156     1198
    1597        1     1209      542     1160     1210
    1598        1     1209     1160      542     1210
    1599        1     1209     1210      542     1160
    1600        1     1210      511     1189     1209
    1601        1     1210     1189      511     1209
    1602        1     1210     1209      511     1189
    1603        1     1211     1163     1193     1212
    1604        1     1211     1193     1163     1212
    1605        1     1211     1212     1163     1193
    1606        1     1212     1162     1192     1211
    1607        1     1212     1192     1162     1211
    1608        1     1212     1211     1162     1192
    1609        1     1213      536     1166     1214
    1610        1     1213     1166      536     1214
    1611        1     1213     1214      536     1166
    1612        1     1214      517     1183     1213
    1613        1     1214     1183      517     1213
    1614        1     1214     1213      517     1183
    1615        1     1215     1169     1187     1216
    1616        1     1215     1187     1169     1216
    1617        1     1215     1216     1169     1187
    1618        1     1216     1168     1186     1215
    1619        1     1216     1186     1168     1215
    1620        1     1216     1215     1168     1186
    1621        1     1217      524     1178     1218
    1622        1     1217     1178      524     1218
    1623        1     1217     1218      524     1178
    1624        1     1218      529     1171     1217
    1625        1     1218     1171      529     1217
    1626        1     1218     1217      529     1171
    1627        1     1219     1175     1181     1220
    1628        1     1219     1181     1175     1220
    1629        1     1219     1220     1175     1181
    1630        1     1220     1174     1180     1219
    1631        1     1220     1180     1174     1219
    1632        1     1220     1219     1174     1180
    1633        1     1226      740     1269     1925
    1634        1     1226     1269      740     1925
    1635        1     1226     1925      740     1269
    1636        1     1229     1247     1272     1279
    1637        1     1229     1272     1247     1279
    1638        1     1229     1279     1247     1272
    1639        1     1232      806     1263     1281
    1640        1     1232     1263      806     1281
    1641        1     1232     1281      806     1263
    1642        1     1235     1097     1266     1283
    1643        1     1235     1266     1097     1283
    1644        1     1235     1283     1097     1266
    1645        1     1238     1016     1257     1285
    1646        1     1238     1257     1016     1285
    1647        1     1238     1285     1016     1257
    1648        1     1241     1163     1260     1287
    1649        1     1241     1260     1163     1287
    1650        1     1241     1287     1163     1260
    1651        1     1244      866     1251     1937
    1652        1     1244     1251      866     1937
    1653        1     1244     1937      866     1251
    1654        1     1247     1229     1254     1291
    1655        1     1247     1254     1229     1291
    1656        1     1247     1291     1229     1254
    1657        1     1250      908     1245     1289
    1658        1     1250     1245      908     1289
    1659        1     1250     1289      908     1245
    1660        1     1253     1248     1271     1291
    1661        1     1253     1271     1248     1291
    1662        1     1253     1291     1248     1271
    1663        1     1256     1046     1239     1933
    1664        1     1256     1239     1046     1933
    1665        1     1256     1933     1046     1239
    1666        1     1259     1193     1242     1287
    1667        1     1259     1242     1193     1287
    1668        1     1259     1287     1193     1242
    1669        1     1262      824     1233     1929
    1670        1     1262     1233      824     1929
    1671        1     1262     1929      824     1233
    1672        1     1265     1115     1236     1283
    1673        1     1265     1236     1115     1283
    1674        1     1265     1283     1115     1236
    1675        1     1268      746     1227     1277
    1676        1     1268     1227      746     1277
    1677        1     1268     1277      746     1227
    1678        1     1271     1230     1253     1279
    1679        1     1271     1253     1230     1279
    1680        1     1271     1279     1230     1253
    1681        1     1277      578     1268     1278
    1682        1     1277     1268      578     1278
    1683        1     1277     1278      578     1268
    1684        1     1278      619     1225     1277
    1685        1     1278     1225      619     1277
    1686        1     1278     1277      619     1225
    1687        1     1279     1229     1271     1280
    1688        1     1279     1271     1229     1280
    1689        1     1279     1280     1229     1271
    1690        1     1280     1228     1270     1279
    1691        1     1280     1270     1228     1279
    1692        1     1280     1279     1228     1270
    1693        1     1281      614     1232     1282
    1694        1     1281     1232      614     1282
    1695        1     1281     1282      614     1232
    1696        1     1282      583     1261     1281
    1697        1     1282     1261      583     1281
    1698        1     1282     1281      583     1261
    1699        1     1283     1235     1265     1284
    1700        1     1283     1265     1235     1284
    1701        1     1283     1284     1235     1265
    1702        1     1284     1234     1264     1283
    1703        1     1284     1264     1234     1283
    1704        1     1284     1283     1234     1264
    1705        1     1285      608     1238     1286
    1706        1     1285     1238      608     1286
    1707        1     1285     1286      608     1238
    1708        1     1286      589     1255     1285
    1709        1     1286     1255      589     1285
    1710        1     1286     1285      589     1255
    1711        1     1287     1241     1259     1288
    1712        1     1287     1259     1241     1288
    1713        1     1287     1288     1241     1259
    1714        1     1288     1240     1258     1287
    1715        1     1288     1258     1240     1287
    1716        1     1288     1287     1240     1258
    1717        1     1289      596     1250     1290
    1718        1     1289     1250      596     1290
    1719        1     1289     1290      596     1250
    1720        1     1290      601     1243     1289
    1721        1     1290     1243      601     1289
    1722        1     1290     1289      601     1243
    1723        1     1291     1247     1253     1292
    1724        1     1291     1253     1247     1292
    1725        1     1291     1292     1247     1253
    1726        1     1292     1246     1252     1291
    1727        1     1292     1252     1246     1291
    1728        1     1292     1291     1246     1252
    1729        1     1298       53     1341     1676
    1730        1     1298     1341       53     1676
    1731        1     1298     1676       53     1341
    1732        1     1301     1319     1344     1351
    1733        1     1301     1344     1319     1351
    1734        1     1301     1351     1319     1344
    1735        1     1304     1335     1353     1526
    1736        1     1304     1353     1335     1526
    1737        1     1304     1526     1335     1353
    1738        1     1307     1338     1355     1385
    1739        1     1307     1355     1338     1385
    1740        1     1307     1385     1338     1355
    1741        1     1310     1329     1357     1736
    1742        1     1310     1357     1329     1736
    1743        1     1310     1736     1329     1357
    1744        1     1313     1332     1359     1451
    1745        1     1313     1359     1332     1451
    1746        1     1313     1451     1332     1359
    1747        1     1316       65     1323     1802
    1748        1     1316     1323       65     1802
    1749        1     1316     1802       65     1323
    1750        1     1319     1301     1326     1363
    1751        1     1319     1326     1301     1363
    1752        1     1319     1363     1301     1326
    1753        1     1322     1317     1361     1844
    1754        1     1322     1361     1317     1844
    1755        1     1322     1844     1317     1361
    1756        1     1325     1320     1343     1363
    1757        1     1325     1343     1320     1363
    1758        1     1325     1363     1320     1343
    1759        1     1328       61     1311     1766
    1760        1     1328     1311       61     1766
    1761        1     1328     1766       61     1311
    1762        1     1331     1314     1359     1481
    1763        1     1331     1359     1314     1481
    1764        1     1331     1481     1314     1359
    1765        1     1334       57     1305     1544
    1766        1     1334     1305       57     1544
    1767        1     1334     1544       57     1305
    1768        1     1337     1308     1355     1403
    1769        1     1337     1355     1308     1403
    1770        1     1337     1403     1308     1355
    1771        1     1340     1299     1349     1682
    1772        1     1340     1349     1299     1682
    1773        1     1340     1682     1299     1349
    1774        1     1343     1302     1325     1351
    1775        1     1343     1325     1302     1351
    1776        1     1343     1351     1302     1325
    1777        1     1349      650     1340     1350
    1778        1     1349     1340      650     1350
    1779        1     1349     1350      650     1340
    1780        1     1350      691     1297     1349
    1781        1     1350     1297      691     1349
    1782        1     1350     1349      691     1297
    1783        1     1351     1301     1343     1352
    1784        1     1351     1343     1301     1352
    1785        1     1351     1352     1301     1343
    1786        1     1352     1300     1342     1351
    1787        1     1352     1342     1300     1351
    1788        1     1352     1351     1300     1342
    1789        1     1353      686     1304     1354
    1790        1     1353     1304      686     1354
    1791        1     1353     1354      686     1304
    1792        1     1354      655     1333     1353
    1793        1     1354     1333      655     1353
    1794        1     1354     1353      655     1333
    1795        1     1355     1307     1337     1356
    1796        1     1355     1337     1307     1356
    1797        1     1355     1356     1307     1337
    1798        1     1356     1306     1336     1355
    1799        1     1356     1336     1306     1355
    1800        1     1356     1355     1306     1336
    1801        1     1357      680     1310     1358
    1802        1     1357     1310      680     1358
    1803        1     1357     1358      680     1310
    1804        1     1358      661     1327     1357
    1805        1     1358     1327      661     1357
    1806        1     1358     1357      661     1327
    1807        1     1359     1313     1331     1360
    1808        1     1359     1331     1313     1360
    1809        1     1359     1360     1313     1331
    1810        1     1360     1312     1330     1359
    1811        1     1360     1330     1312     1359
    1812        1     1360     1359     1312     1330
    1813        1     1361      668     1322     1362
    1814        1     1361     1322      668     1362
    1815        1     1361     1362      668     1322
    1816        1     1362      673     1315     1361
    1817        1     1362     1315      673     1361
    1818        1     1362     1361      673     1315
    1819        1     1363     1319     1325     1364
    1820        1     1363     1325     1319     1364
    1821        1     1363     1364     1319     1325
    1822        1     1364     1318     1324     1363
    1823        1     1364     1324     1318     1363
    1824        1     1364     1363     1318     1324
    1825        1     1370      125     1413     1532
    1826        1     1370     1413      125     1532
    1827        1     1370     1532      125     1413
    1828        1     1373     1391     1416     1423
    1829        1     1373     1416     1391     1423
    1830        1     1373     1423     1391     1416
    1831        1     1376     1407     1425     1598
    1832        1     1376     1425     1407     1598
    1833        1     1376     1598     1407     1425
    1834        1     1379     1410     1427     1457
    1835        1     1379     1427     1410     1457
    1836        1     1379     1457     1410     1427
    1837        1     1382     1401     1429     1808
    1838        1     1382     1429     1401     1808
    1839        1     1382     1808     1401     1429
    1840        1     1385     1307     1404     1431
    1841        1     1385     1404     1307     1431
    1842        1     1385     1431     1307     1404
    1843        1     1388      137     1395     1874
    1844        1     1388     1395      137     1874
    1845        1     1388     1874      137     1395
    1846        1     1391     1373     1398     1435
    1847        1     1391     1398     1373     1435
    1848        1     1391     1435     1373     1398
    1849        1     1394     1389     1433     1916
    1850        1     1394     1433     1389     1916
    1851        1     1394     1916     1389     1433
    1852        1     1397     1392     1415     1435
    1853        1     1397     1415     1392     1435
    1854        1     1397     1435     1392     1415
    1855        1     1400      133     1383     1838
    1856        1     1400     1383      133     1838
    1857        1     1400     1838      133     1383
    1858        1     1403     1337     1386     1431
    1859        1     1403     1386     1337     1431
    1860        1     1403     1431     1337     1386
    1861        1     1406      129     1377     1616
    1862        1     1406     1377      129     1616
    1863        1     1406     1616      129     1377
    1864        1     1409     1380     1427     1475
    1865        1     1409     1427     1380     1475
    1866        1     1409     1475     1380     1427
    1867        1     1412     1371     1421     1538
    1868        1     1412     1421     1371     1538
    1869        1     1412     1538     1371     1421
    1870        1     1415     1374     1397     1423
    1871        1     1415     1397     1374     1423
    1872        1     1415     1423     1374     1397
    1873        1     1421      722     1412     1422
    1874        1     1421     1412      722     1422
    1875        1     1421     1422      722     1412
    1876        1     1422      763     1369     1421
    1877        1     1422     1369      763     1421
    1878        1     1422     1421      763     1369
    1879        1     1423     1373     1415     1424
    1880        1     1423     1415     1373     1424
    1881        1     1423     1424     1373     1415
    1882        1     1424     1372     1414     1423
    1883        1     1424     1414     1372     1423
    1884        1     1424     1423     1372     1414
    1885        1     1425      758     1376     1426
    1886        1     1425     1376      758     1426
    1887        1     1425     1426      758     1376
    1888        1     1426      727     1405     1425
    1889        1     1426     1405      727     1425
    1890        1     1426     1425      727     1405
    1891        1     1427     1379     1409     1428
    1892        1     1427     1409     1379     1428
    1893        1     1427     1428     1379     1409
    1894        1     1428     1378     1408     1427
    1895        1     1428     1408     1378     1427
    1896        1     1428     1427     1378     1408
    1897        1     1429      752     1382     1430
    1898        1     1429     1382      752     1430
    1899        1     1429     1430      752     1382
    1900        1     1430      733     1399     1429
    1901        1     1430     1399      733     1429
    1902        1     1430     1429      733     1399
    1903        1     1431     1385     1403     1432
    1904        1     1431     1403     1385     1432
    1905        1     1431     1432     1385     1403
    1906        1     1432     1384     1402     1431
    1907        1     1432     1402     1384     1431
    1908        1     1432     1431     1384     1402
    1909        1     1433      740     1394     1434
    1910        1     1433     1394      740     1434
    1911        1     1433     1434      740     1394
    1912        1     1434      745     1387     1433
    1913        1     1434     1387      745     1433
    1914        1     1434     1433      745     1387
    1915        1     1435     1391     1397     1436
    1916        1     1435     1397     1391     1436
    1917        1     1435     1436     1391     1397
    1918        1     1436     1390     1396     1435
    1919        1     1436     1396     1390     1435
    1920        1     1436     1435     1390     1396
    1921        1     1442      197     1485     1604
    1922        1     1442     1485      197     1604
    1923        1     1442     1604      197     1485
    1924        1     1445     1463     1488     1495
    1925        1     1445     1488     1463     1495
    1926        1     1445     1495     1463     1488
    1927        1     1448     1479     1497     1670
    1928        1     1448     1497     1479     1670
    1929        1     1448     1670     1479     1497
    1930        1     1451     1313     1482     1499
    1931        1     1451     1482     1313     1499
    1932        1     1451     1499     1313     1482
    1933        1     1454     1473     1501     1880
    1934        1     1454     1501     1473     1880
    1935        1     1454     1880     1473     1501
    1936        1     1457     1379     1476     1503
    1937        1     1457     1476     1379     1503
    1938        1     1457     1503     1379     1476
    1939        1     1460      209     1467     1730
    1940        1     1460     1467      209     1730
    1941        1     1460     1730      209     1467
    1942        1     1463     1445     1470     1507
    1943        1     1463     1470     1445     1507
    1944        1     1463     1507     1445     1470
    1945        1     1466     1461     1505     1772
    1946        1     1466     1505     1461     1772
    1947        1     1466     1772     1461     1505
    1948        1     1469     1464     1487     1507
    1949        1     1469     1487     1464     1507
    1950        1     1469     1507     1464     1487
    1951        1     1472      205     1455     1910
    1952        1     1472     1455      205     1910
    1953        1     1472     1910      205     1455
    1954        1     1475     1409     1458     1503
    1955        1     1475     1458     1409     1503
    1956        1     1475     1503     1409     1458
    1957        1     1478      201     1449     1688
    1958        1     1478     1449      201     1688
    1959        1     1478     1688      201     1449
    1960        1     1481     1331     1452     1499
    1961        1     1481     1452     1331     1499
    1962        1     1481     1499     1331     1452
    1963        1     1484     1443     1493     1610
    1964        1     1484     1493     1443     1610
    1965        1     1484     1610     1443     1493
    1966        1     1487     1446     1469     1495
    1967        1     1487     1469     1446     1495
    1968        1     1487     1495     1446     1469
    1969        1     1493      794     1484     1494
    1970        1     1493     1484      794     1494
    1971        1     1493     1494      794     1484
    1972        1     1494      835     1441     1493
    1973        1     1494     1441      835     1493
    1974        1     1494     1493      835     1441
    1975        1     1495     1445     1487     1496
    1976        1     1495     1487     1445     1496
    1977        1     1495     1496     1445     1487
    1978        1     1496     1444     1486     1495
    1979        1     1496     1486     1444     1495
    1980        1     1496     1495     1444     1486
    1981        1     1497      830     1448     1498
    1982        1     1497     1448      830     1498
    1983        1     1497     1498      830     1448
    1984        1     1498      799     1477     1497
    1985        1     1498     1477      799     1497
    1986        1     1498     1497      799     1477
    1987        1     1499     1451     1481     1500
    1988        1     1499     1481     1451     1500
    1989        1     1499     1500     1451     1481
    1990        1     1500     1450     1480     1499
    1991        1     1500     1480     1450     1499
    1992        1     1500     1499     1450     1480
    1993        1     1501      824     1454     1502
    1994        1     1501     1454      824     1502
    1995        1     1501     1502      824     1454
    1996        1     1502      805     1471     1501
    1997        1     1502     1471      805     1501
    1998        1     1502     1501      805     1471
    1999        1     1503     1457     1475     1504
    2000        1     1503     1475     1457     1504
    2001        1     1503     1504     1457     1475
    2002        1     1504     1456     1474     1503
    2003        1     1504     1474     1456     1503
    2004        1     1504     1503     1456     1474
    2005        1     1505      812     1466     1506
    2006        1     1505     1466      812     1506
    2007        1     1505     1506      812     1466
    2008        1     1506      817     1459     1505
    2009        1     1506     1459      817     1505
    2010        1     1506     1505      817     1459
    2011        1     1507     1463     1469     1508
    2012        1     1507     1469     1463     1508
    2013        1     1507     1508     1463     1469
    2014        1     1508     1462     1468     1507
    2015        1     1508     1468     1462     1507
    2016        1     1508     1507     1462     1468
    2017        1     1514      269     1557     1892
    2018        1     1514     1557      269     1892
    2019        1     1514     1892      269     1557
    2020        1     1517     1535     1560     1567
    2021        1     1517     1560     1535     1567
    2022        1     1517     1567     1535     1560
    2023        1     1520     1551     1569     1742
    2024        1     1520     1569     1551     1742
    2025        1     1520     1742     1551     1569
    2026        1     1523     1554     1571     1601
    2027        1     1523     1571     1554     1601
    2028        1     1523     1601     1554     1571
    2029        1     1526     1304     1545     1573
    2030        1     1526     1545     1304     1573
    2031        1     1526     1573     1304     1545
    2032        1     1529     1548     1575     1667
    2033        1     1529     1575     1548     1667
    2034        1     1529     1667     1548     1575
    2035        1     1532      281     1370     1539
    2036        1     1532     1370      281     1539
    2037        1     1532     1539      281     1370
    2038        1     1535     1517     1542     1579
    2039        1     1535     1542     1517     1579
    2040        1     1535     1579     1517     1542
    2041        1     1538     1412     1533     1577
    2042        1     1538     1533     1412     1577
    2043        1     1538     1577     1412     1533
    2044        1     1541     1536     1559     1579
    2045        1     1541     1559     1536     1579
    2046        1     1541     1579     1536     1559
    2047        1     1544      277     1334     1527
    2048        1     1544     1334      277     1527
    2049        1     1544     1527      277     1334
    2050        1     1547     1530     1575     1697
    2051        1     1547     1575     1530     1697
    2052        1     1547     1697     1530     1575
    2053        1     1550      273     1521     1760
    2054        1     1550     1521      273     1760
    2055        1     1550     1760      273     1521
    2056        1     1553     1524     1571     1619
    2057        1     1553     1571     1524     1619
    2058        1     1553     1619     1524     1571
    2059        1     1556     1515     1565     1898
    2060        1     1556     1565     1515     1898
    2061        1     1556     1898     1515     1565
    2062        1     1559     1518     1541     1567
    2063        1     1559     1541     1518     1567
    2064        1     1559     1567     1518     1541
    2065        1     1565      866     1556     1566
    2066        1     1565     1556      866     1566
    2067        1     1565     1566      866     1556
    2068        1     1566      907     1513     1565
    2069        1     1566     1513      907     1565
    2070        1     1566     1565      907     1513
    2071        1     1567     1517     1559     1568
    2072        1     1567     1559     1517     1568
    2073        1     1567     1568     1517     1559
    2074        1     1568     1516     1558     1567
    2075        1     1568     1558     1516     1567
    2076        1     1568     1567     1516     1558
    2077        1     1569      902     1520     1570
    2078        1     1569     1520      902     1570
    2079        1     1569     1570      902     1520
    2080        1     1570      871     1549     1569
    2081        1     1570     1549      871     1569
    2082        1     1570     1569      871     1549
    2083        1     1571     1523     1553     1572
    2084        1     1571     1553     1523     1572
    2085        1     1571     1572     1523     1553
    2086        1     1572     1522     1552     1571
    2087        1     1572     1552     1522     1571
    2088        1     1572     1571     1522     1552
    2089        1     1573      896     1526     1574
    2090        1     1573     1526      896     1574
    2091        1     1573     1574      896     1526
    2092        1     1574      877     1543     1573
    2093        1     1574     1543      877     1573
    2094        1     1574     1573      877     1543
    2095        1     1575     1529     1547     1576
    2096        1     1575     1547     1529     1576
    2097        1     1575     1576     1529     1547
    2098        1     1576     1528     1546     1575
    2099        1     1576     1546     1528     1575
    2100        1     1576     1575     1528     1546
    2101        1     1577      884     1538     1578
    2102        1     1577     1538      884     1578
    2103        1     1577     1578      884     1538
    2104        1     1578      889     1531     1577
    2105        1     1578     1531      889     1577
    2106        1     1578     1577      889     1531
    2107        1     1579     1535     1541     1580
    2108        1     1579     1541     1535     1580
    2109        1     1579     1580     1535     1541
    2110        1     1580     1534     1540     1579
    2111        1     1580     1540     1534     1579
    2112        1     1580     1579     1534     1540
    2113        1     1586      341     1629     1748
    2114        1     1586     1629      341     1748
    2115        1     1586     1748      341     1629
    2116        1     1589     1607     1632     1639
    2117        1     1589     1632     1607     1639
    2118        1     1589     1639     1607     1632
    2119        1     1592     1623     1641     1814
    2120        1     1592     1641     1623     1814
    2121        1     1592     1814     1623     1641
    2122        1     1595     1626     1643     1673
    2123        1     1595     1643     1626     1673
    2124        1     1595     1673     1626     1643
    2125        1     1598     1376     1617     1645
    2126        1     1598     1617     1376     1645
    2127        1     1598     1645     1376     1617
    2128        1     1601     1523     1620     1647
    2129        1     1601     1620     1523     1647
    2130        1     1601     1647     1523     1620
    2131        1     1604      353     1442     1611
    2132        1     1604     1442      353     1611
    2133        1     1604     1611      353     1442
    2134        1     1607     1589     1614     1651
    2135        1     1607     1614     1589     1651
    2136        1     1607     1651     1589     1614
    2137        1     1610     1484     1605     1649
    2138        1     1610     1605     1484     1649
    2139        1     1610     1649     1484     1605
    2140        1     1613     1608     1631     1651
    2141        1     1613     1631     1608     1651
    2142        1     1613     1651     1608     1631
    2143        1     1616      349     1406     1599
    2144        1     1616     1406      349     1599
    2145        1     1616     1599      349     1406
    2146        1     1619     1553     1602     1647
    2147        1     1619     1602     1553     1647
    2148        1     1619     1647     1553     1602
    2149        1     1622      345     1593     1832
    2150        1     1622     1593      345     1832
    2151        1     1622     1832      345     1593
    2152        1     1625     1596     1643     1691
    2153        1     1625     1643     1596     1691
    2154        1     1625     1691     1596     1643
    2155        1     1628     1587     1637     1754
    2156        1     1628     1637     1587     1754
    2157        1     1628     1754     1587     1637
    2158        1     1631     1590     1613     1639
    2159        1     1631     1613     1590     1639
    2160        1     1631     1639     1590     1613
    2161        1     1637      938     1628     1638
    2162        1     1637     1628      938     1638
    2163        1     1637     1638      938     1628
    2164        1     1638      979     1585     1637
    2165        1     1638     1585      979     1637
    2166        1     1638     1637      979     1585
    2167        1     1639     1589     1631     1640
    2168        1     1639     1631     1589     1640
    2169        1     1639     1640     1589     1631
    2170        1     1640     1588     1630     1639
    2171        1     1640     1630     1588     1639
    2172        1     1640     1639     1588     1630
    2173        1     1641      974     1592     1642
    2174        1     1641     1592      974     1642
    2175        1     1641     1642      974     1592
    2176        1     1642      943     1621     1641
    2177        1     1642     1621      943     1641
    2178        1     1642     1641      943     1621
    2179        1     1643     1595     1625     1644
    2180        1     1643     1625     1595     1644
    2181        1     1643     1644     1595     1625
    2182        1     1644     1594     1624     1643
    2183        1     1644     1624     1594     1643
    2184        1     1644     1643     1594     1624
    2185        1     1645      968     1598     1646
    2186        1     1645     1598      968     1646
    2187        1     1645     1646      968     1598
    2188        1     1646      949     1615     1645
    2189        1     1646     1615      949     1645
    2190        1     1646     1645      949     1615
    2191        1     1647     1601     1619     1648
    2192        1     1647     1619     1601     1648
    2193        1     1647     1648     1601     1619
    2194        1     1648     1600     1618     1647
    2195        1     1648     1618     1600     1647
    2196        1     1648     1647     1600     1618
    2197        1     1649      956     1610     1650
    2198        1     1649     1610      956     1650
    2199        1     1649     1650      956     1610
    2200        1     1650      961     1603     1649
    2201        1     1650     1603      961     1649
    2202        1     1650     1649      961     1603
    2203        1     1651     1607     1613     1652
    2204        1     1651     1613     1607     1652
    2205        1     1651     1652     1607     1613
    2206        1     1652     1606     1612     1651
    2207        1     1652     1612     1606     1651
    2208        1     1652     1651     1606     1612
    2209        1     1658      413     1701     1820
    2210        1     1658     1701      413     1820
    2211        1     1658     1820      413     1701
    2212        1     1661     1679     1704     1711
    2213        1     1661     1704     1679     1711
    2214        1     1661     1711     1679     1704
    2215        1     1664     1695     1713     1886
    2216        1     1664     1713     1695     1886
    2217        1     1664     1886     1695     1713
    2218        1     1667     1529     1698     1715
    2219        1     1667     1698     1529     1715
    2220        1     1667     1715     1529     1698
    2221        1     1670     1448     1689     1717
    2222        1     1670     1689     1448     1717
    2223        1     1670     1717     1448     1689
    2224        1     1673     1595     1692     1719
    2225        1     1673     1692     1595     1719
    2226        1     1673     1719     1595     1692
    2227        1     1676      425     1298     1683
    2228        1     1676     1298      425     1683
    2229        1     1676     1683      425     1298
    2230        1     1679     1661     1686     1723
    2231        1     1679     1686     1661     1723
    2232        1     1679     1723     1661     1686
    2233        1     1682     1340     1677     1721
    2234        1     1682     1677     1340     1721
    2235        1     1682     1721     1340     1677
    2236        1     1685     1680     1703     1723
    2237        1     1685     1703     1680     1723
    2238        1     1685     1723     1680     1703
    2239        1     1688      421     1478     1671
    2240        1     1688     1478      421     1671
    2241        1     1688     1671      421     1478
    2242        1     1691     1625     1674     1719
    2243        1     1691     1674     1625     1719
    2244        1     1691     1719     1625     1674
    2245        1     1694      417     1665     1904
    2246        1     1694     1665      417     1904
    2247        1     1694     1904      417     1665
    2248        1     1697     1547     1668     1715
    2249        1     1697     1668     1547     1715
    2250        1     1697     1715     1547     1668
    2251        1     1700     1659     1709     1826
    2252        1     1700     1709     1659     1826
    2253        1     1700     1826     1659     1709
    2254        1     1703     1662     1685     1711
    2255        1     1703     1685     1662     1711
    2256        1     1703     1711     1662     1685
    2257        1     1709     1010     1700     1710
    2258        1     1709     1700     1010     1710
    2259        1     1709     1710     1010     1700
    2260        1     1710     1051     1657     1709
    2261        1     1710     1657     1051     1709
    2262        1     1710     1709     1051     1657
    2263        1     1711     1661     1703     1712
    2264        1     1711     1703     1661     1712
    2265        1     1711     1712     1661     1703
    2266        1     1712     1660     1702     1711
    2267        1     1712     1702     1660     1711
    2268        1     1712     1711     1660     1702
    2269        1     1713     1046     1664     1714
    2270        1     1713     1664     1046     1714
    2271        1     1713     1714     1046     1664
    2272        1     1714     1015     1693     1713
    2273        1     1714     1693     1015     1713
    2274        1     1714     1713     1015     1693
    2275        1     1715     1667     1697     1716
    2276        1     1715     1697     1667     1716
    2277        1     1715     1716     1667     1697
    2278        1     1716     1666     1696     1715
    2279        1     1716     1696     1666     1715
    2280        1     1716     1715     1666     1696
    2281        1     1717     1040     1670     1718
    2282        1     1717     1670     1040     1718
    2283        1     1717     1718     1040     1670
    2284        1     1718     1021     1687     1717
    2285        1     1718     1687     1021     1717
    2286        1     1718     1717     1021     1687
    2287        1     1719     1673     1691     1720
    2288        1     1719     1691     1673     1720
    2289        1     1719     1720     1673     1691
    2290        1     1720     1672     1690     1719
    2291        1     1720     1690     1672     1719
    2292        1     1720     1719     1672     1690
    2293        1     1721     1028     1682     1722
    2294        1     1721     1682     1028     1722
    2295        1     1721     1722     1028     1682
    2296        1     1722     1033     1675     1721
    2297        1     1722     1675     1033     1721
    2298        1     1722     1721     1033     1675
    2299        1     1723     1679     1685     1724
    2300        1     1723     1685     1679     1724
    2301        1     1723     1724     1679     1685
    2302        1     1724     1678     1684     1723
    2303        1     1724     1684     1678     1723
    2304        1     1724     1723     1678     1684
    2305        1     1730      485     1460     1773
    2306        1     1730     1460      485     1773
    2307        1     1730     1773      485     1460
    2308        1     1733     1751     1776     1783
    2309        1     1733     1776     1751     1783
    2310        1     1733     1783     1751     1776
    2311        1     1736     1310     1767     1785
    2312        1     1736     1767     1310     1785
    2313        1     1736     1785     1310     1767
    2314        1     1739     1770     1787     1817
    2315        1     1739     1787     1770     1817
    2316        1     1739     1817     1770     1787
    2317        1     1742     1520     1761     1789
    2318        1     1742     1761     1520     1789
    2319        1     1742     1789     1520     1761
    2320        1     1745     1764     1791     1883
    2321        1     1745     1791     1764     1883
    2322        1     1745     1883     1764     1791
    2323        1     1748      497     1586     1755
    2324        1     1748     1586      497     1755
    2325        1     1748     1755      497     1586
    2326        1     1751     1733     1758     1795
    2327        1     1751     1758     1733     1795
    2328        1     1751     1795     1733     1758
    2329        1     1754     1628     1749     1793
    2330        1     1754     1749     1628     1793
    2331        1     1754     1793     1628     1749
    2332        1     1757     1752     1775     1795
    2333        1     1757     1775     1752     1795
    2334        1     1757     1795     1752     1775
    2335        1     1760      493     1550     1743
    2336        1     1760     1550      493     1743
    2337        1     1760     1743      493     1550
    2338        1     1763     1746     1791     1913
    2339        1     1763     1791     1746     1913
    2340        1     1763     1913     1746     1791
    2341        1     1766      489     1328     1737
    2342        1     1766     1328      489     1737
    2343        1     1766     1737      489     1328
    2344        1     1769     1740     1787     1835
    2345        1     1769     1787     1740     1835
    2346        1     1769     1835     1740     1787
    2347        1     1772     1466     1731     1781
    2348        1     1772     1731     1466     1781
    2349        1     1772     1781     1466     1731
    2350        1     1775     1734     1757     1783
    2351        1     1775     1757     1734     1783
    2352        1     1775     1783     1734     1757
    2353        1     1781     1082     1772     1782
    2354        1     1781     1772     1082     1782
    2355        1     1781     1782     1082     1772
    2356        1     1782     1123     1729     1781
    2357        1     1782     1729     1123     1781
    2358        1     1782     1781     1123     1729
    2359        1     1783     1733     1775     1784
    2360        1     1783     1775     1733     1784
    2361        1     1783     1784     1733     1775
    2362        1     1784     1732     1774     1783
    2363        1     1784     1774     1732     1783
    2364        1     1784     1783     1732     1774
    2365        1     1785     1118     1736     1786
    2366        1     1785     1736     1118     1786
    2367        1     1785     1786     1118     1736
    2368        1     1786     1087     1765     1785
    2369        1     1786     1765     1087     1785
    2370        1     1786     1785     1087     1765
    2371        1     1787     1739     1769     1788
    2372        1     1787     1769     1739     1788
    2373        1     1787     1788     1739     1769
    2374        1     1788     1738     1768     1787
    2375        1     1788     1768     1738     1787
    2376        1     1788     1787     1738     1768
    2377        1     1789     1112     1742     1790
    2378        1     1789     1742     1112     1790
    2379        1     1789     1790     1112     1742
    2380        1     1790     1093     1759     1789
    2381        1     1790     1759     1093     1789
    2382        1     1790     1789     1093     1759
    2383        1     1791     1745     1763     1792
    2384        1     1791     1763     1745     1792
    2385        1     1791     1792     1745     1763
    2386        1     1792     1744     1762     1791
    2387        1     1792     1762     1744     1791
    2388        1     1792     1791     1744     1762
    2389        1     1793     1100     1754     1794
    2390        1     1793     1754     1100     1794
    2391        1     1793     1794     1100     1754
    2392        1     1794     1105     1747     1793
    2393        1     1794     1747     1105     1793
    2394        1     1794     1793     1105     1747
    2395        1     1795     1751     1757     1796
    2396        1     1795     1757     1751     1796
    2397        1     1795     1796     1751     1757
    2398        1     1796     1750     1756     1795
    2399        1     1796     1756     1750     1795
    2400        1     1796     1795     1750     1756
    2401        1     1802      557     1316     1845
    2402        1     1802     1316      557     1845
    2403        1     1802     1845      557     1316
    2404        1     1805     1823     1848     1855
    2405        1     1805     1848     1823     1855
    2406        1     1805     1855     1823     1848
    2407        1     1808     1382     1839     1857
    2408        1     1808     1839     1382     1857
    2409        1     1808     1857     1382     1839
    2410        1     1811     1842     1859     1889
    2411        1     1811     1859     1842     1889
    2412        1     1811     1889     1842     1859
    2413        1     1814     1592     1833     1861
    2414        1     1814     1833     1592     1861
    2415        1     1814     1861     1592     1833
    2416        1     1817     1739     1836     1863
    2417        1     1817     1836     1739     1863
    2418        1     1817     1863     1739     1836
    2419        1     1820      569     1658     1827
    2420        1     1820     1658      569     1827
    2421        1     1820     1827      569     1658
    2422        1     1823     1805     1830     1867
    2423        1     1823     1830     1805     1867
    2424        1     1823     1867     1805     1830
    2425        1     1826     1700     1821     1865
    2426        1     1826     1821     1700     1865
    2427        1     1826     1865     1700     1821
    2428        1     1829     1824     1847     1867
    2429        1     1829     1847     1824     1867
    2430        1     1829     1867     1824     1847
    2431        1     1832      565     1622     1815
    2432        1     1832     1622      565     1815
    2433        1     1832     1815      565     1622
    2434        1     1835     1769     1818     1863
    2435        1     1835     1818     1769     1863
    2436        1     1835     1863     1769     1818
    2437        1     1838      561     1400     1809
    2438        1     1838     1400      561     1809
    2439        1     1838     1809      561     1400
    2440        1     1841     1812     1859     1907
    2441        1     1841     1859     1812     1907
    2442        1     1841     1907     1812     1859
    2443        1     1844     1322     1803     1853
    2444        1     1844     1803     1322     1853
    2445        1     1844     1853     1322     1803
    2446        1     1847     1806     1829     1855
    2447        1     1847     1829     1806     1855
    2448        1     1847     1855     1806     1829
    2449        1     1853     1154     1844     1854
    2450        1     1853     1844     1154     1854
    2451        1     1853     1854     1154     1844
    2452        1     1854     1195     1801     1853
    2453        1     1854     1801     1195     1853
    2454        1     1854     1853     1195     1801
    2455        1     1855     1805     1847     1856
    2456        1     1855     1847     1805     1856
    2457        1     1855     1856     1805     1847
    2458        1     1856     1804     1846     1855
    2459        1     1856     1846     1804     1855
    2460        1     1856     1855     1804     1846
    2461        1     1857     1190     1808     1858
    2462        1     1857     1808     1190     1858
    2463        1     1857     1858     1190     1808
    2464        1     1858     1159     1837     1857
    2465        1     1858     1837     1159     1857
    2466        1     1858     1857     1159     1837
    2467        1     1859     1811     1841     1860
    2468        1     1859     1841     1811     1860
    2469        1     1859     1860     1811     1841
    2470        1     1860     1810     1840     1859
    2471        1     1860     1840     1810     1859
    2472        1     1860     1859     1810     1840
    2473        1     1861     1184     1814     1862
    2474        1     1861     1814     1184     1862
    2475        1     1861     1862     1184     1814
    2476        1     1862     1165     1831     1861
    2477        1     1862     1831     1165     1861
    2478        1     1862     1861     1165     1831
    2479        1     1863     1817     1835     1864
    2480        1     1863     1835     1817     1864
    2481        1     1863     1864     1817     1835
    2482        1     1864     1816     1834     1863
    2483        1     1864     1834     1816     1863
    2484        1     1864     1863     1816     1834
    2485        1     1865     1172     1826     1866
    2486        1     1865     1826     1172     1866
    2487        1     1865     1866     1172     1826
    2488        1     1866     1177     1819     1865
    2489        1     1866     1819     1177     1865
    2490        1     1866     1865     1177     1819
    2491        1     1867     1823     1829     1868
    2492        1     1867     1829     1823     1868
    2493        1     1867     1868     1823     1829
    2494        1     1868     1822     1828     1867
    2495        1     1868     1828     1822     1867
    2496        1     1868     1867     1822     1828
    2497        1     1874      629     1388     1917
    2498        1     1874     1388      629     1917
    2499        1     1874     1917      629     1388
    2500        1     1877     1895     1920     1927
    2501        1     1877     1920     1895     1927
    2502        1     1877     1927     1895     1920
    2503        1     1880     1454     1911     1929
    2504        1     1880     1911     1454     1929
    2505        1     1880     1929     1454     1911
    2506        1     1883     1745     1914     1931
    2507        1     1883     1914     1745     1931
    2508        1     1883     1931     1745     1914
    2509        1     1886     1664     1905     1933
    2510        1     1886     1905     1664     1933
    2511        1     1886     1933     1664     1905
    2512        1     1889     1811     1908     1935
    2513        1     1889     1908     1811     1935
    2514        1     1889     1935     1811     1908
    2515        1     1892      641     1514     1899
    2516        1     1892     1514      641     1899
    2517        1     1892     1899      641     1514
    2518        1     1895     1877     1902     1939
    2519        1     1895     1902     1877     1939
    2520        1     1895     1939     1877     1902
    2521        1     1898     1556     1893     1937
    2522        1     1898     1893     1556     1937
    2523        1     1898     1937     1556     1893
    2524        1     1901     1896     1919     1939
    2525        1     1901     1919     1896     1939
    2526        1     1901     1939     1896     1919
    2527        1     1904      637     1694     1887
    2528        1     1904     1694      637     1887
    2529        1     1904     1887      637     1694
    2530        1     1907     1841     1890     1935
    2531        1     1907     1890     1841     1935
    2532        1     1907     1935     1841     1890
    2533        1     1910      633     1472     1881
    2534        1     1910     1472      633     1881
    2535        1     1910     1881      633     1472
    2536        1     1913     1763     1884     1931
    2537        1     1913     1884     1763     1931
    2538        1     1913     1931     1763     1884
    2539        1     1916     1394     1875     1925
    2540        1     1916     1875     1394     1925
    2541        1     1916     1925     1394     1875
    2542        1     1919     1878     1901     1927
    2543        1     1919     1901     1878     1927
    2544        1     1919     1927     1878     1901
    2545        1     1925     1226     1916     1926
    2546        1     1925     1916     1226     1926
    2547        1     1925     1926     1226     1916
    2548        1     1926     1267     1873     1925
    2549        1     1926     1873     1267     1925
    2550        1     1926     1925     1267     1873
    2551        1     1927     1877     1919     1928
    2552        1     1927     1919     1877     1928
    2553        1     1927     1928     1877     1919
    2554        1     1928     1876     1918     1927
    2555        1     1928     1918     1876     1927
    2556        1     1928     1927     1876     1918
    2557        1     1929     1262     1880     1930
    2558        1     1929     1880     1262     1930
    2559        1     1929     1930     1262     1880
    2560        1     1930     1231     1909     1929
    2561        1     1930     1909     1231     1929
    2562        1     1930     1929     1231     1909
    2563        1     1931     1883     1913     1932
    2564        1     1931     1913     1883     1932
    2565        1     1931     1932     1883     1913
    2566        1     1932     1882     1912     1931
    2567        1     1932     1912     1882     1931
    2568        1     1932     1931     1882     1912
    2569        1     1933     1256     1886     1934
    2570        1     1933     1886     1256     1934
    2571        1     1933     1934     1256     1886
    2572        1     1934     1237     1903     1933
    2573        1     1934     1903     1237     1933
    2574        1     1934     1933     1237     1903
    2575        1     1935     1889     1907     1936
    2576        1     1935     1907     1889     1936
    2577        1     1935     1936     1889     1907
    2578        1     1936     1888     1906     1935
    2579        1     1936     1906     1888     1935
    2580        1     1936     1935     1888     1906
    2581        1     1937     1244     1898     1938
    2582        1     1937     1898     1244     1938
    2583        1     1937     1938     1244     1898
    2584        1     1938     1249     1891     1937
    2585        1     1938     1891     1249     1937
    2586        1     1938     1937     1249     1891
    2587        1     1939     1895     1901     1940
    2588        1     1939     1901     1895     1940
    2589        1     1939     1940     1895     1901
    2590        1     1940     1894     1900     1939
    2591        1     1940     1900     1894     1939
    2592        1     1940     1939     1894     1900
