# LAMMPS data file written by OVITO Basic 3.5.4
5760 atoms
6 atom types

           0.000000  52.575800 xlo xhi
           0.000000  52.575800 ylo yhi
           0.000000  52.575800 zlo zhi
           0.000000   0.000000   0.000000 xy xz yz

Masses

    1    15.999400000 # O_2
    2    63.546000000 # Cu4+2
    3    12.010700000 # C_R
    4     1.007940000 # H_
    5    15.999400000 # O_3
    6     1.007940000 # H_
    
Atoms  # charge

       1      444        1     0.00000    8.28227    6.44343   24.96798
       2      444        1     0.00000    8.29147   19.58738   11.81142
       3      444        1     0.00000   21.42332    6.44606   11.82824
       4      444        1     0.00000   21.44672   19.58922   24.97140
       5      444        1     0.00000   17.97882   19.83185   24.95694
       6      444        1     0.00000   17.99380    6.70762   11.83271
       7      444        1     0.00000    4.85406   19.84395   11.81510
       8      444        1     0.00000    4.85906    6.71183   24.96273
       9      444        1     0.00000   18.00511    6.43528    1.31755
      10      444        1     0.00000   17.99223   19.58843   14.46807
      11      444        1     0.00000    4.86799    6.43028   14.46334
      12      444        1     0.00000    4.85774   19.57423    1.32517
      13      444        1     0.00000    8.27859   19.84973    1.32728
      14      444        1     0.00000    8.28069    6.71498   14.46203
      15      444        1     0.00000   21.42911   19.84763   14.46939
      16      444        1     0.00000   21.42148    6.71078    1.31834
      17      444        1     0.00000   24.97140    8.27491    6.42503
      18      444        1     0.00000   24.97088   21.42674   19.57239
      19      444        1     0.00000   11.82640    8.27727   19.57108
      20      444        1     0.00000   11.82929   21.42700    6.42923
      21      444        1     0.00000   24.97061   18.01194   19.84868
      22      444        1     0.00000   24.97298    4.87246    6.72182
      23      444        1     0.00000   11.82824   18.00721    6.69711
      24      444        1     0.00000   11.82535    4.87325   19.86077
      25      444        1     0.00000    1.30546   17.99801    6.43607
      26      444        1     0.00000    1.31702    4.86931   19.56845
      27      444        1     0.00000   14.45440   17.99643   19.58501
      28      444        1     0.00000   14.45782    4.87194    6.42739
      29      444        1     0.00000    1.31808    8.28043   19.84658
      30      444        1     0.00000    1.30756   21.42595    6.69973
      31      444        1     0.00000   14.46465    8.27780    6.71735
      32      444        1     0.00000   14.45282   21.43016   19.84421
      33      444        1     0.00000    6.42792   24.96036    8.27464
      34      444        1     0.00000    6.42976   11.82167   21.41491
      35      444        1     0.00000   19.57371   24.95431   21.43305
      36      444        1     0.00000   19.57266   11.81720    8.28884
      37      444        1     0.00000   19.84868   24.96141   18.01405
      38      444        1     0.00000   19.85288   11.81510    4.87693
      39      444        1     0.00000    6.71761   24.97166    4.86642
      40      444        1     0.00000    6.71656   11.82193   18.00669
      41      444        1     0.00000    6.42713    1.32176   18.01483
      42      444        1     0.00000    6.41924   14.46387    4.87325
      43      444        1     0.00000   19.57502    1.33201    4.87693
      44      444        1     0.00000   19.58159   14.47228   18.01063
      45      444        1     0.00000   19.85841    1.33516    8.28384
      46      444        1     0.00000   19.85814   14.47096   21.43016
      47      444        1     0.00000    6.71472    1.32649   21.41780
      48      444        1     0.00000    6.71787   14.47175    8.29410
      49      444        1     0.00000    6.43107    8.29383    1.31702
      50      444        1     0.00000    6.44474   21.43147   14.45440
      51      444        1     0.00000   19.58396    8.28726   14.47359
      52      444        1     0.00000   19.60736   21.44304    1.32386
      53      444        1     0.00000   19.82791   17.99065    1.31045
      54      444        1     0.00000   19.84263    4.85406   14.46807
      55      444        1     0.00000    6.70236   17.99801   14.45388
      56      444        1     0.00000    6.70236    4.87246    1.32333
      57      444        1     0.00000    6.42844   17.99722   24.97587
      58      444        1     0.00000    6.43370    4.86852   11.82141
      59      444        1     0.00000   19.58449   18.00038   11.82693
      60      444        1     0.00000   19.57344    4.86458   24.96378
      61      444        1     0.00000   19.85315    8.27990   24.96273
      62      444        1     0.00000   19.83922   21.43621   11.82850
      63      444        1     0.00000    6.71367    8.28358   11.82298
      64      444        1     0.00000    6.70788   21.42043   24.97824
      65      444        1     0.00000    8.27569   24.97166   19.87102
      66      444        1     0.00000    8.26413   11.83350    6.71498
      67      444        1     0.00000   21.42306   24.97929    6.72313
      68      444        1     0.00000   21.42622   11.82929   19.85604
      69      444        1     0.00000   18.01799   24.97429    6.43265
      70      444        1     0.00000   18.00590   11.82956   19.58554
      71      444        1     0.00000    4.87772   24.96667   19.56530
      72      444        1     0.00000    4.86852   11.82219    6.44132
      73      444        1     0.00000   18.00195    1.31177   19.86235
      74      444        1     0.00000   18.00669   14.45756    6.72182
      75      444        1     0.00000    4.86589    1.31650    6.72182
      76      444        1     0.00000    4.86563   14.46465   19.85341
      77      444        1     0.00000    8.27122    1.32570    6.43554
      78      444        1     0.00000    8.27596   14.46465   19.56871
      79      444        1     0.00000   21.41649    1.31939   19.58948
      80      444        1     0.00000   21.41938   14.45782    6.43843
      81      444        1     0.00000   24.96062    6.42897   18.00274
      82      444        1     0.00000   24.94748   19.58186    4.85459
      83      444        1     0.00000   11.81825    6.43738    4.86826
      84      444        1     0.00000   11.81115   19.58580   17.99512
      85      444        1     0.00000   24.95169   19.84474    8.28595
      86      444        1     0.00000   24.96457    6.71288   21.41517
      87      444        1     0.00000   11.80721   19.84132   21.42858
      88      444        1     0.00000   11.82035    6.72392    8.27543
      89      444        1     0.00000    1.32833    6.43028    8.26991
      90      444        1     0.00000    1.32491   19.58002   21.41307
      91      444        1     0.00000   14.46728    6.43133   21.41754
      92      444        1     0.00000   14.47175   19.58081    8.27464
      93      444        1     0.00000    1.32570   19.85814   17.99643
      94      444        1     0.00000    1.32281    6.71551    4.86536
      95      444        1     0.00000   14.47333   19.86051    4.85958
      96      444        1     0.00000   14.46728    6.72339   18.01168
      97      444        1     0.00000   18.03113   19.89048    1.30887
      98      444        1     0.00000   18.01852    6.72550   14.47464
      99      444        1     0.00000    4.88061   19.86813   14.45493
     100      444        1     0.00000    4.86799    6.73023    1.31650
     101      444        1     0.00000    8.26649    6.43554    1.32360
     102      444        1     0.00000    8.26728   19.56056   14.45309
     103      444        1     0.00000   21.40650    6.41714   14.46833
     104      444        1     0.00000   21.40098   19.54532    1.32202
     105      444        1     0.00000    8.26860   19.85183   24.97166
     106      444        1     0.00000    8.27753    6.72076   11.82088
     107      444        1     0.00000   21.40440   19.87497   11.82903
     108      444        1     0.00000   21.41596    6.71551   24.96299
     109      444        1     0.00000   18.01089    6.42923   24.96273
     110      444        1     0.00000   18.01957   19.56293   11.82771
     111      444        1     0.00000    4.86957    6.43160   11.82219
     112      444        1     0.00000    4.87010   19.56530   24.97193
     113      444        1     0.00000    1.32570   18.01562   19.85104
     114      444        1     0.00000    1.32701    4.86484    6.70867
     115      444        1     0.00000   14.47201   18.01641    6.71183
     116      444        1     0.00000   14.46676    4.86799   19.85341
     117      444        1     0.00000    1.32333    8.28043    6.42792
     118      444        1     0.00000    1.32412   21.42148   19.55951
     119      444        1     0.00000   14.46597    8.28489   19.57712
     120      444        1     0.00000   14.47070   21.42306    6.42450
     121      444        1     0.00000   24.96089    8.27596   19.85078
     122      444        1     0.00000   24.95379   21.40887    6.72260
     123      444        1     0.00000   11.82272    8.28805    6.71262
     124      444        1     0.00000   11.80984   21.40781   19.86839
     125      444        1     0.00000   24.95169   18.01746    6.41740
     126      444        1     0.00000   24.96457    4.86852   19.56924
     127      444        1     0.00000   11.81378   18.01983   19.55662
     128      444        1     0.00000   11.81667    4.87404    6.43239
     129      444        1     0.00000   19.85420    1.31597   18.02456
     130      444        1     0.00000   19.85315   14.45335    4.87693
     131      444        1     0.00000    6.70841    1.32544    4.87141
     132      444        1     0.00000    6.71288   14.46308   18.00485
     133      444        1     0.00000    6.42818    1.31466    8.28673
     134      444        1     0.00000    6.42923   14.46334   21.41702
     135      444        1     0.00000   19.56319    1.31150   21.42858
     136      444        1     0.00000   19.57055   14.45835    8.28542
     137      444        1     0.00000   19.85998   24.97929    8.28726
     138      444        1     0.00000   19.86498   11.82929   21.42201
     139      444        1     0.00000    6.70788   24.97166   21.43016
     140      444        1     0.00000    6.71866   11.82877    8.29383
     141      444        1     0.00000    6.44553   24.96720   18.00563
     142      444        1     0.00000    6.42240   11.83113    4.87036
     143      444        1     0.00000   19.58238   24.97692    4.87010
     144      444        1     0.00000   19.56845   11.83297   18.02114
     145      444        1     0.00000   19.87181   18.03508   24.95484
     146      444        1     0.00000   19.86077    4.88140   11.82509
     147      444        1     0.00000    6.72865   18.02325   11.81273
     148      444        1     0.00000    6.71971    4.87930   24.96956
     149      444        1     0.00000    6.42108    8.27675   24.96246
     150      444        1     0.00000    6.41661   21.40860   11.81299
     151      444        1     0.00000   19.55793    8.27096   11.83402
     152      444        1     0.00000   19.55136   21.38862   24.96746
     153      444        1     0.00000   19.85867    8.27517    1.31781
     154      444        1     0.00000   19.86340   21.40992   14.46886
     155      444        1     0.00000    6.71630    8.27753   14.46387
     156      444        1     0.00000    6.71393   21.41149    1.32806
     157      444        1     0.00000    6.42371   18.01142    1.33175
     158      444        1     0.00000    6.43133    4.86694   14.46281
     159      444        1     0.00000   19.55662   18.02561   14.46833
     160      444        1     0.00000   19.56792    4.87088    1.31913
     161      444        1     0.00000   18.00853    1.33148    6.43738
     162      444        1     0.00000   18.01773   14.47096   19.57371
     163      444        1     0.00000    4.86116    1.32018   19.57581
     164      444        1     0.00000    4.86615   14.47070    6.44316
     165      444        1     0.00000    8.28121    1.32649   19.85735
     166      444        1     0.00000    8.26255   14.46465    6.71156
     167      444        1     0.00000   21.42306    1.33227    6.72155
     168      444        1     0.00000   21.42070   14.46886   19.86577
     169      444        1     0.00000    8.27990   24.97088    6.43107
     170      444        1     0.00000    8.27990   11.82351   19.57055
     171      444        1     0.00000   21.41281   24.96273   19.57686
     172      444        1     0.00000   21.41912   11.81589    6.43764
     173      444        1     0.00000   18.01168   24.95747   19.86839
     174      444        1     0.00000   18.00826   11.81904    6.72628
     175      444        1     0.00000    4.86615   24.96325    6.70920
     176      444        1     0.00000    4.86563   11.82246   19.85157
     177      444        1     0.00000    1.30625   19.86419    8.26492
     178      444        1     0.00000    1.31702    6.71708   21.41071
     179      444        1     0.00000   14.44730   19.86524   21.40676
     180      444        1     0.00000   14.46045    6.71288    8.27990
     181      444        1     0.00000    1.31650    6.42976   18.00169
     182      444        1     0.00000    1.30178   19.56030    4.87115
     183      444        1     0.00000   14.46045    6.43659    4.86458
     184      444        1     0.00000   14.45256   19.55951   18.02062
     185      444        1     0.00000   24.97061   19.86550   18.00669
     186      444        1     0.00000   24.96930    6.70946    4.86379
     187      444        1     0.00000   11.82982   19.86682    4.86221
     188      444        1     0.00000   11.82666    6.71551   18.00537
     189      444        1     0.00000   24.97535    6.43896    8.28253
     190      444        1     0.00000   24.97403   19.57555   21.41176
     191      444        1     0.00000   11.82693    6.43764   21.42332
     192      444        1     0.00000   11.83087   19.56924    8.26308
     193      444        2     0.00000    7.32486    7.33748   -0.00105
     194      444        2     0.00000    7.33064   20.47249   13.13343
     195      444        2     0.00000   20.46382    7.32644   13.15078
     196      444        2     0.00000   20.47643   20.46592    0.00184
     197      444        2     0.00000   18.95095   18.96278   -0.01262
     198      444        2     0.00000   18.95384    5.81725   13.14973
     199      444        2     0.00000    5.82093   18.96278   13.13449
     200      444        2     0.00000    5.81646    5.82776   -0.00079
     201      444        2     0.00000   18.95910    7.32749   -0.00368
     202      444        2     0.00000   18.95910   20.46881   13.14816
     203      444        2     0.00000    5.81883    7.32880   13.14316
     204      444        2     0.00000    5.81646   20.46460    0.00683
     205      444        2     0.00000    7.32249   18.95515    0.00789
     206      444        2     0.00000    7.32933    5.81935   13.14158
     207      444        2     0.00000   20.46960   18.96120   13.14842
     208      444        2     0.00000   20.46881    5.81646   -0.00289
     209      444        2     0.00000    0.00578    7.32802    7.32302
     210      444        2     0.00000    0.00394   20.46934   20.45803
     211      444        2     0.00000   13.14632    7.31960   20.45856
     212      444        2     0.00000   13.15052   20.46934    7.31724
     213      444        2     0.00000    0.00394   18.96304   18.95095
     214      444        2     0.00000    0.00421    5.81751    5.81646
     215      444        2     0.00000   13.15052   18.96199    5.80673
     216      444        2     0.00000   13.14632    5.81357   18.95068
     217      444        2     0.00000   -0.01498   18.95568    7.32617
     218      444        2     0.00000   -0.00315    5.82303   20.45961
     219      444        2     0.00000   13.13107   18.96015   20.46487
     220      444        2     0.00000   13.13869    5.82330    7.32644
     221      444        2     0.00000   -0.00499    7.33222   18.94674
     222      444        2     0.00000   -0.01630   20.46539    5.81620
     223      444        2     0.00000   13.14158    7.33459    5.81620
     224      444        2     0.00000   13.13186   20.47091   18.95647
     225      444        2     0.00000    7.32539   -0.00079    7.33064
     226      444        2     0.00000    7.32539   13.14316   20.46434
     227      444        2     0.00000   20.46697   -0.00657   20.48222
     228      444        2     0.00000   20.47170   13.13764    7.33906
     229      444        2     0.00000   18.95752   -0.00710   18.97093
     230      444        2     0.00000   18.96067   13.13685    5.83066
     231      444        2     0.00000    5.81672    0.00026    5.81988
     232      444        2     0.00000    5.81488   13.14290   18.95331
     233      444        2     0.00000    7.33222    0.00263   18.96225
     234      444        2     0.00000    7.29016   13.14868    5.84590
     235      444        2     0.00000   20.46855    0.01130    5.83066
     236      444        2     0.00000   20.46776   13.15052   18.97014
     237      444        2     0.00000   18.95726    0.01104    7.33958
     238      444        2     0.00000   18.95910   13.15000   20.48038
     239      444        2     0.00000    5.81830    0.00210   20.46907
     240      444        2     0.00000    5.79543   13.14947    7.36981
     241      444        3     0.00000    8.48863    4.66794   23.36179
     242      444        3     0.00000    7.80935    5.35195   24.49323
     243      444        3     0.00000    8.49625   17.81216   10.20417
     244      444        3     0.00000    7.81828   18.49669   11.33587
     245      444        3     0.00000   17.79112   21.60182   23.35075
     246      444        3     0.00000   18.46094   20.91939   24.48560
     247      444        3     0.00000   17.79086    8.48258   10.22810
     248      444        3     0.00000   18.46804    7.79857   11.35821
     249      444        3     0.00000    4.65427    8.48258   23.35233
     250      444        3     0.00000    5.33250    7.80172   24.48560
     251      444        3     0.00000   17.79927    4.66637    2.92873
     252      444        3     0.00000   18.47855    5.34564    1.79520
     253      444        3     0.00000   17.79112   17.81216   16.07584
     254      444        3     0.00000   18.46672   18.49801   14.94415
     255      444        3     0.00000    4.65848    4.65900   16.07032
     256      444        3     0.00000    5.34065    5.33960   14.93862
     257      444        3     0.00000    8.48600   21.62653    2.93163
     258      444        3     0.00000    7.80514   20.94042    1.80256
     259      444        3     0.00000    8.48915    8.48652   16.06743
     260      444        3     0.00000    7.80751    7.80514   14.93784
     261      444        3     0.00000   23.35838    8.47890    4.66006
     262      444        3     0.00000   24.49323    7.79962    5.33697
     263      444        3     0.00000   10.22179    8.48731   17.79717
     264      444        3     0.00000   11.35164    7.80567   18.47961
     265      444        3     0.00000   23.36889   17.80585   21.62653
     266      444        3     0.00000   24.49743   18.48539   20.94042
     267      444        3     0.00000   23.36337    4.67162    8.49047
     268      444        3     0.00000   24.49796    5.34854    7.81119
     269      444        3     0.00000   10.22152   17.80322    8.46917
     270      444        3     0.00000   11.35322   18.48066    7.78779
     271      444        3     0.00000    2.91270   17.79454    4.66190
     272      444        3     0.00000    1.77969   18.47172    5.34459
     273      444        3     0.00000   16.06532   17.79875   17.81189
     274      444        3     0.00000   14.93074   18.47146   18.49511
     275      444        3     0.00000   16.06795    4.66584    4.65927
     276      444        3     0.00000   14.93521    5.34591    5.33828
     277      444        3     0.00000    2.92611    8.48495   21.61812
     278      444        3     0.00000    1.79415    7.80619   20.93674
     279      444        3     0.00000   16.06611    8.48389    8.49257
     280      444        3     0.00000   14.93784    7.80304    7.80803
     281      444        3     0.00000    4.65559   23.35233    8.47706
     282      444        3     0.00000    5.33855   24.48481    7.79883
     283      444        3     0.00000    4.65874   10.21443   21.62153
     284      444        3     0.00000    5.33986   11.34586   20.94120
     285      444        3     0.00000   21.62075   23.35470   17.80769
     286      444        3     0.00000   20.93910   24.48639   18.48723
     287      444        3     0.00000   21.62548   10.20891    4.66479
     288      444        3     0.00000   20.94436   11.33981    5.34801
     289      444        3     0.00000    8.48968   23.36521    4.65769
     290      444        3     0.00000    7.80803   24.49612    5.33960
     291      444        3     0.00000    4.65638    2.92847   17.80348
     292      444        3     0.00000    5.33566    1.79652   18.48618
     293      444        3     0.00000    4.64954   16.07006    4.66321
     294      444        3     0.00000    5.33487   14.94415    5.34959
     295      444        3     0.00000   21.62811    2.94424    8.48836
     296      444        3     0.00000   20.94883    1.81045    7.81014
     297      444        3     0.00000   21.63389   16.07663   21.63547
     298      444        3     0.00000   20.94909   14.94520   20.95619
     299      444        3     0.00000    8.48994   16.07321    8.47890
     300      444        3     0.00000    7.80383   14.94204    7.80698
     301      444        3     0.00000    4.65769    8.49783    2.92321
     302      444        3     0.00000    5.34065    7.82012    1.79205
     303      444        3     0.00000    4.67267   21.63336   16.06270
     304      444        3     0.00000    5.35485   20.95698   14.93100
     305      444        3     0.00000   21.60865   17.77798    2.92216
     306      444        3     0.00000   20.92149   18.45700    1.79152
     307      444        3     0.00000   21.61549    4.65138   16.07821
     308      444        3     0.00000   20.93332    5.32751   14.94441
     309      444        3     0.00000    8.46865    4.67241    2.93899
     310      444        3     0.00000    7.79121    5.34722    1.80177
     311      444        3     0.00000    4.65979   17.80006   23.36022
     312      444        3     0.00000    5.34118   18.47461   24.49612
     313      444        3     0.00000    4.66190    4.66032   10.21574
     314      444        3     0.00000    5.34354    5.34196   11.34586
     315      444        3     0.00000   21.62364    8.48363   23.35338
     316      444        3     0.00000   20.94252    7.80514   24.48613
     317      444        3     0.00000   21.61523   21.63941   10.22179
     318      444        3     0.00000   20.93016   20.96355   11.35296
     319      444        3     0.00000    8.48679    8.49415   10.21600
     320      444        3     0.00000    7.80435    7.81171   11.34665
     321      444        3     0.00000    8.47811   23.36127   21.63941
     322      444        3     0.00000    7.79936   24.49533   20.95961
     323      444        3     0.00000    8.48731   10.22652    8.48521
     324      444        3     0.00000    7.80488   11.35821    7.81040
     325      444        3     0.00000   17.81321   23.36495    4.66505
     326      444        3     0.00000   18.49301   24.49848    5.34354
     327      444        3     0.00000   17.80111   10.22678   17.80979
     328      444        3     0.00000   18.47908   11.35637   18.49406
     329      444        3     0.00000    4.65638   10.22126    4.65953
     330      444        3     0.00000    5.33750   11.34980    5.34643
     331      444        3     0.00000   17.79849    2.92505   21.62784
     332      444        3     0.00000   18.47540    1.78915   20.95172
     333      444        3     0.00000   17.80164   16.06638    8.49073
     334      444        3     0.00000   18.48013   14.93389    7.81145
     335      444        3     0.00000    4.65664    2.92111    8.49309
     336      444        3     0.00000    5.33802    1.79021    7.81329
     337      444        3     0.00000    8.46996    2.94346    4.67241
     338      444        3     0.00000    7.79568    1.80466    5.34775
     339      444        3     0.00000    8.48337   16.06900   17.79481
     340      444        3     0.00000    7.80304   14.93889   18.47776
     341      444        3     0.00000   23.35102    4.65795   17.80585
     342      444        3     0.00000   24.48586    5.33986   18.48013
     343      444        3     0.00000   10.20339    4.67215    4.66715
     344      444        3     0.00000   11.33981    5.34906    5.34328
     345      444        3     0.00000   23.34839   21.62522    8.49204
     346      444        3     0.00000   24.47745   20.93674    7.81276
     347      444        3     0.00000   10.20286   21.62101   21.63626
     348      444        3     0.00000   11.33271   20.93384   20.95724
     349      444        3     0.00000   10.21732    8.49625    8.48468
     350      444        3     0.00000   11.34665    7.81513    7.80277
     351      444        3     0.00000    2.93215    4.65822    8.48284
     352      444        3     0.00000    1.80335    5.33934    7.79831
     353      444        3     0.00000   16.07347    4.66058   21.62390
     354      444        3     0.00000   14.94309    5.34170   20.94357
     355      444        3     0.00000    2.93715   21.63021   17.79112
     356      444        3     0.00000    1.80204   20.94856   18.46988
     357      444        3     0.00000    2.92742    8.48915    4.65638
     358      444        3     0.00000    1.79783    7.80645    5.33776
     359      444        3     0.00000   16.08451   21.63047    4.65927
     360      444        3     0.00000   14.94940   20.94988    5.33566
     361      444        3     0.00000   17.81899   21.64362    2.92584
     362      444        3     0.00000   18.50905   20.97433    1.79152
     363      444        3     0.00000   17.80874    8.49651   16.07873
     364      444        3     0.00000   18.49275    7.81539   14.94940
     365      444        3     0.00000    8.47680   17.79481   16.06007
     366      444        3     0.00000    7.79305   18.47146   14.92916
     367      444        3     0.00000    8.47469   21.62758   23.36889
     368      444        3     0.00000    7.79594   20.94515   24.49980
     369      444        3     0.00000   17.80374    4.66032   23.35443
     370      444        3     0.00000   18.48434    5.33934   24.48665
     371      444        3     0.00000   17.81084   17.79901   10.21784
     372      444        3     0.00000   18.49380   18.47435   11.35085
     373      444        3     0.00000    2.93215   17.80847   21.62364
     374      444        3     0.00000    1.80098   18.48959   20.94120
     375      444        3     0.00000   16.07926   17.80742    8.48468
     376      444        3     0.00000   14.94809   18.49012    7.80225
     377      444        3     0.00000   16.07268    8.49493   17.80585
     378      444        3     0.00000   14.94152    7.81382   18.48591
     379      444        3     0.00000   23.35496    8.48153   21.62232
     380      444        3     0.00000   24.48665    7.80172   20.94147
     381      444        3     0.00000   23.34287   17.80059    4.65348
     382      444        3     0.00000   24.47351   18.49012    5.32856
     383      444        3     0.00000   10.20969   17.80585   17.78850
     384      444        3     0.00000   11.33797   18.49327   18.46699
     385      444        3     0.00000   21.61812    2.92900   17.81794
     386      444        3     0.00000   20.94173    1.79546   18.49958
     387      444        3     0.00000   21.62022   16.05954    4.66242
     388      444        3     0.00000   20.94357   14.93048    5.34801
     389      444        3     0.00000    4.65953   16.07295   21.62495
     390      444        3     0.00000    5.33934   14.94020   20.94383
     391      444        3     0.00000   21.63021   23.37152    8.49415
     392      444        3     0.00000   20.95067   24.50400    7.81355
     393      444        3     0.00000   21.62995   10.21758   21.62469
     394      444        3     0.00000   20.95356   11.35269   20.94620
     395      444        3     0.00000    4.67346   23.35943   17.79559
     396      444        3     0.00000    5.35432   24.49060   18.47671
     397      444        3     0.00000   21.64151   17.81741   23.35785
     398      444        3     0.00000   20.96591   18.50458   24.48692
     399      444        3     0.00000   21.62364    4.68240   10.21153
     400      444        3     0.00000   20.94804    5.35853   11.34770
     401      444        3     0.00000    4.64691   21.61917   10.20759
     402      444        3     0.00000    5.32619   20.93489   11.33850
     403      444        3     0.00000   21.62653    8.48021    2.92952
     404      444        3     0.00000   20.94778    7.80067    1.79520
     405      444        3     0.00000   21.62863   21.62259   16.07663
     406      444        3     0.00000   20.95330   20.93779   14.94493
     407      444        3     0.00000    4.64639   17.80111    2.93189
     408      444        3     0.00000    5.33119   18.48486    1.80388
     409      444        3     0.00000   17.80322    2.93846    4.66452
     410      444        3     0.00000   18.48434    1.80808    5.34827
     411      444        3     0.00000   17.80506   16.07715   17.80453
     412      444        3     0.00000   18.49065   14.94704   18.48355
     413      444        3     0.00000    8.48521    2.93610   21.62863
     414      444        3     0.00000    7.80514    1.80361   20.94620
     415      444        3     0.00000    8.48968   10.21784   17.79743
     416      444        3     0.00000    7.80751   11.34770   18.47987
     417      444        3     0.00000   17.80322   23.34103   21.62916
     418      444        3     0.00000   18.48513   24.47719   20.95645
     419      444        3     0.00000   17.79717   10.21495    8.49835
     420      444        3     0.00000   18.48092   11.34375    7.81671
     421      444        3     0.00000    2.91638   21.62916    8.47443
     422      444        3     0.00000    1.78311   20.95303    7.79094
     423      444        3     0.00000   16.06296   21.62075   21.61785
     424      444        3     0.00000   14.92758   20.95251   20.93358
     425      444        3     0.00000    2.92505    4.65979   17.79927
     426      444        3     0.00000    1.79283    5.34091   18.47776
     427      444        3     0.00000   23.35943   21.63179   17.80558
     428      444        3     0.00000   24.49375   20.95409   18.48302
     429      444        3     0.00000   10.22047   21.63494    4.65927
     430      444        3     0.00000   11.35322   20.95540    5.33855
     431      444        3     0.00000   10.21995    4.66479   21.63231
     432      444        3     0.00000   11.35006    5.34748   20.95093
     433      444        3     0.00000    9.64372    5.22577   22.78556
     434      444        4     0.00000   10.06669    6.12850   23.20827
     435      444        3     0.00000    9.65029   18.36683    9.62453
     436      444        4     0.00000   10.07379   19.27140   10.04277
     437      444        3     0.00000   16.63682   21.04820   22.76769
     438      444        4     0.00000   16.20360   20.14757   23.18777
     439      444        3     0.00000   16.63998    7.92265    9.64713
     440      444        4     0.00000   16.21648    7.01940   10.06800
     441      444        3     0.00000    3.49103   21.06476    9.62899
     442      444        4     0.00000    3.06438   20.16361   10.05249
     443      444        3     0.00000   16.64497    5.22630    3.50549
     444      444        4     0.00000   16.22174    6.12876    3.08226
     445      444        3     0.00000   16.63761   18.36578   16.65838
     446      444        4     0.00000   16.21070   19.26824   16.23830
     447      444        3     0.00000    3.49208   18.35947    3.51101
     448      444        4     0.00000    3.06780   19.26167    3.08988
     449      444        3     0.00000    9.63846   21.06765    3.51127
     450      444        4     0.00000   10.05801   20.16072    3.09409
     451      444        3     0.00000    9.64372    7.92659   16.64392
     452      444        4     0.00000   10.06695    7.02518   16.21937
     453      444        3     0.00000   22.77925    9.63005    5.22446
     454      444        4     0.00000   23.20196   10.05118    6.12824
     455      444        3     0.00000   22.77663   22.78162   18.36841
     456      444        4     0.00000   23.19776   23.20591   19.27140
     457      444        3     0.00000    9.64372    9.64030   18.35763
     458      444        4     0.00000   10.06459   10.06222   19.26141
     459      444        3     0.00000   22.78556   16.65338   21.07001
     460      444        4     0.00000   23.19960   16.23304   20.16387
     461      444        3     0.00000   22.78688    3.51601    7.93264
     462      444        4     0.00000   23.21406    3.08725    7.03438
     463      444        3     0.00000    9.64109    3.51180   21.07080
     464      444        4     0.00000   10.06353    3.08909   20.16781
     465      444        3     0.00000    3.49314   16.64287    5.22130
     466      444        4     0.00000    3.07174   16.21832    6.12298
     467      444        3     0.00000    3.50313    3.50759   18.36262
     468      444        4     0.00000    3.08147    3.08830   19.26772
     469      444        3     0.00000    3.50575    9.63767   21.05897
     470      444        4     0.00000    3.08410   10.06222   20.15625
     471      444        3     0.00000    3.50129   22.77873    7.91424
     472      444        4     0.00000    3.08147   23.20275    7.01098
     473      444        3     0.00000    5.21315   22.77137    9.63057
     474      444        4     0.00000    6.11798   23.19013   10.05328
     475      444        3     0.00000   18.36052   22.75244   22.77820
     476      444        4     0.00000   19.26141   23.16910   23.20827
     477      444        3     0.00000   18.35500    9.63609    9.65239
     478      444        4     0.00000   19.25878   10.05670   10.07589
     479      444        3     0.00000   21.06160   22.77321   16.65522
     480      444        4     0.00000   20.15651   23.19224   16.23278
     481      444        3     0.00000   21.06502    9.63241    3.51022
     482      444        4     0.00000   20.16124   10.05512    3.08935
     483      444        3     0.00000    7.92554   22.78162    3.50786
     484      444        4     0.00000    7.02097   23.20196    3.08699
     485      444        3     0.00000    5.21894    3.50654   16.65049
     486      444        4     0.00000    6.12271    3.08410   16.22910
     487      444        3     0.00000   18.36236    3.51496    3.50917
     488      444        4     0.00000   19.26561    3.09277    3.08646
     489      444        3     0.00000   21.06055    3.53046    9.63346
     490      444        4     0.00000   20.15336    3.11275   10.05223
     491      444        3     0.00000    7.92422    3.51653   22.78083
     492      444        4     0.00000    7.01861    3.09698   23.19828
     493      444        3     0.00000    5.21447    9.65187    3.50076
     494      444        4     0.00000    6.11746   10.07615    3.08068
     495      444        3     0.00000   18.36683    9.64976   16.65759
     496      444        4     0.00000   19.27140   10.07168   16.23698
     497      444        3     0.00000   21.05608   16.62473    3.50497
     498      444        4     0.00000   20.15336   16.19755    3.08725
     499      444        3     0.00000    7.91976   16.64234   16.64129
     500      444        4     0.00000    7.01703   16.21753   16.22095
     501      444        3     0.00000    7.90530    3.52337    3.52232
     502      444        4     0.00000    7.00310    3.09908    3.09987
     503      444        3     0.00000    5.21841   16.64708   22.78083
     504      444        4     0.00000    6.12061   16.22331   23.20328
     505      444        3     0.00000    5.21762    3.50102    9.64529
     506      444        4     0.00000    6.11746    3.07595   10.07168
     507      444        3     0.00000   18.36552   16.64287    9.64266
     508      444        4     0.00000   19.26640   16.21674   10.06643
     509      444        3     0.00000   21.06581    9.63846   22.77610
     510      444        4     0.00000   20.16229   10.06091   23.19723
     511      444        3     0.00000    7.92317    9.64372    9.63452
     512      444        4     0.00000    7.01519   10.06012   10.05197
     513      444        3     0.00000    9.62873   22.77794   21.07606
     514      444        4     0.00000   10.05144   23.19907   20.17202
     515      444        3     0.00000    9.63741    9.64740    7.92054
     516      444        4     0.00000   10.05565   10.06511    7.01177
     517      444        3     0.00000   16.65917   22.78451    5.22393
     518      444        4     0.00000   16.23199   23.20880    6.12534
     519      444        3     0.00000   16.64760    9.64845   18.36736
     520      444        4     0.00000   16.22226   10.07221   19.26877
     521      444        3     0.00000    3.50234    9.64319    5.21710
     522      444        4     0.00000    3.08015   10.06511    6.12061
     523      444        3     0.00000   16.64681    3.50391   21.06607
     524      444        4     0.00000   16.22069    3.07884   20.16624
     525      444        3     0.00000   16.65076   16.64839    7.92869
     526      444        4     0.00000   16.22542   16.22489    7.02754
     527      444        3     0.00000    3.50497    3.49945    7.92922
     528      444        4     0.00000    3.07963    3.07306    7.02912
     529      444        3     0.00000    9.62584    3.51942    5.22971
     530      444        4     0.00000   10.05144    3.09566    6.13086
     531      444        3     0.00000    9.63557   16.65181   18.35342
     532      444        4     0.00000   10.05933   16.23330   19.25799
     533      444        3     0.00000   22.77032    5.21447   16.65207
     534      444        4     0.00000   23.19303    6.11562   16.22515
     535      444        3     0.00000   22.76112   18.34843    3.49708
     536      444        4     0.00000   23.17489   19.25457    3.07358
     537      444        3     0.00000    9.62374    5.23287    3.51443
     538      444        4     0.00000   10.04986    6.13218    3.08751
     539      444        3     0.00000   22.76085   21.06581    9.64030
     540      444        4     0.00000   23.16884   20.15309   10.05433
     541      444        3     0.00000   22.77531    7.92028   22.77452
     542      444        4     0.00000   23.19644    7.01624   23.19671
     543      444        3     0.00000    9.64345    7.93684    9.64135
     544      444        4     0.00000   10.06616    7.03359   10.06511
     545      444        3     0.00000    3.51311    5.22419    9.63215
     546      444        4     0.00000    3.09829    6.13481   10.04461
     547      444        3     0.00000    3.50838   18.36578   22.78031
     548      444        4     0.00000    3.08594   19.26850   23.20433
     549      444        3     0.00000    3.51732   21.07185   16.63761
     550      444        4     0.00000    3.09487   20.16965   16.21280
     551      444        3     0.00000    3.50970    7.92975    3.50497
     552      444        4     0.00000    3.09172    7.02544    3.08278
     553      444        3     0.00000   16.66732   21.07238    3.50497
     554      444        4     0.00000   16.25013   20.16361    3.08594
     555      444        3     0.00000   16.65365    7.93527   16.65338
     556      444        4     0.00000   16.23120    7.03385   16.22857
     557      444        3     0.00000    9.62952   18.36105   16.63472
     558      444        4     0.00000   10.04934   19.26430   16.20991
     559      444        3     0.00000    9.62505   21.06397   22.79003
     560      444        4     0.00000   10.04645   20.16150   23.21353
     561      444        3     0.00000   16.65286    5.22367   22.77479
     562      444        4     0.00000   16.23304    6.12981   23.19434
     563      444        3     0.00000   16.66259   18.36841    9.63557
     564      444        4     0.00000   16.24540   19.27508   10.05591
     565      444        3     0.00000    3.50996   16.65575   21.06213
     566      444        4     0.00000    3.08673   16.23409   20.15914
     567      444        3     0.00000    3.51785   22.78162   18.35447
     568      444        4     0.00000    3.09619   23.20301   19.25799
     569      444        3     0.00000   22.78031    9.63636   21.06265
     570      444        4     0.00000   23.20249   10.05775   20.15888
     571      444        3     0.00000   22.78083   22.78609    7.93343
     572      444        4     0.00000   23.20617   23.20643    7.03070
     573      444        3     0.00000   22.76926   16.64865    5.22183
     574      444        4     0.00000   23.19723   16.22989    6.12429
     575      444        3     0.00000   22.77242    3.50891   18.37445
     576      444        4     0.00000   23.19671    3.09014   19.27876
     577      444        3     0.00000   21.05503    3.50234   16.66337
     578      444        4     0.00000   20.15125    3.07831   16.24382
     579      444        3     0.00000   18.36184    3.50523   22.77820
     580      444        4     0.00000   19.26325    3.08042   23.20091
     581      444        3     0.00000   21.06555   22.79818    9.64740
     582      444        4     0.00000   20.16755   23.22878   10.07247
     583      444        3     0.00000    7.91529   22.78320   22.79240
     584      444        4     0.00000    7.01335   23.20880   23.21511
     585      444        3     0.00000    5.23497   22.78346   16.64287
     586      444        4     0.00000    6.14006   23.20407   16.22226
     587      444        3     0.00000   18.37524   22.79240    3.51127
     588      444        4     0.00000   19.27849   23.21511    3.09277
     589      444        3     0.00000   21.07764   16.66022   22.78740
     590      444        4     0.00000   20.17728   16.23725   23.21511
     591      444        3     0.00000    7.93159   16.65891    9.62952
     592      444        4     0.00000    7.02781   16.24172   10.05486
     593      444        3     0.00000    5.21736    9.63557   22.77531
     594      444        4     0.00000    6.12193   10.05565   23.19776
     595      444        3     0.00000    7.92817    9.63977   16.64445
     596      444        4     0.00000    7.02439   10.06117   16.22121
     597      444        3     0.00000    5.20474   16.64471    3.50523
     598      444        4     0.00000    6.10536   16.22253    3.07910
     599      444        3     0.00000   18.35921   16.65917   16.64997
     600      444        4     0.00000   19.26220   16.24014   16.22410
     601      444        3     0.00000   16.64865    3.51548    5.22341
     602      444        4     0.00000   16.22699    3.09435    6.12745
     603      444        3     0.00000   16.65023   16.64839   18.36920
     604      444        4     0.00000   16.22989   16.22174   19.27140
     605      444        3     0.00000    9.63898   16.65049    7.91003
     606      444        4     0.00000   10.05854   16.22647    7.00546
     607      444        3     0.00000    9.64608   22.79187    5.21605
     608      444        4     0.00000   10.07037   23.21695    6.11772
     609      444        3     0.00000   16.64734   22.77321   21.06423
     610      444        4     0.00000   16.23357   23.19697   20.15756
     611      444        3     0.00000   16.64497    9.63793    7.93500
     612      444        4     0.00000   16.22384   10.06196    7.03201
     613      444        3     0.00000    3.50207    7.92291   22.77216
     614      444        4     0.00000    3.07936    7.01913   23.19250
     615      444        3     0.00000    3.50391    5.21973   16.64576
     616      444        4     0.00000    3.08068    6.12193   16.22121
     617      444        3     0.00000   22.78399   21.06817   16.65338
     618      444        4     0.00000   23.20932   20.16624   16.23199
     619      444        3     0.00000   22.78004    7.91923    3.50654
     620      444        4     0.00000   23.20380    7.01782    3.08199
     621      444        3     0.00000   22.78004    5.23918    9.63741
     622      444        4     0.00000   23.20223    6.14322   10.05854
     623      444        3     0.00000   22.79608   18.37077   22.77978
     624      444        4     0.00000   23.22194   19.27087   23.20512
     625        1        5     0.00000   11.06983    9.14766   25.78212
     626        1        6     0.00000   11.33087   10.10191   25.82865
     627        1        6     0.00000   11.73755    8.73389   25.17881
     628        2        5     0.00000   13.03512    2.11276   26.13937
     629        2        6     0.00000   12.04722    2.09331   26.20641
     630        2        6     0.00000   13.26593    1.31518   25.59916
     631        3        5     0.00000   12.67760   10.66158    4.55674
     632        3        6     0.00000   13.03591   11.47493    4.99391
     633        3        6     0.00000   11.69338   10.76516    4.60170
     634        4        5     0.00000   22.98956   17.14208   11.21784
     635        4        6     0.00000   23.48219   17.93492   11.54985
     636        4        6     0.00000   22.56843   17.44307   10.37294
     637        5        5     0.00000   11.44233   21.41859   11.71363
     638        5        6     0.00000   11.54801   20.44673   11.87372
     639        5        6     0.00000   10.74728   21.48484   11.01095
     640        6        5     0.00000   22.55160   25.78974   11.49728
     641        6        6     0.00000   22.69802   25.60126   10.53593
     642        6        6     0.00000   22.21328   24.93644   11.86951
     643        7        5     0.00000    7.78174    0.43533   11.74990
     644        7        6     0.00000    8.19368    0.52497   12.64632
     645        7        6     0.00000    6.89610    0.02603   11.92051
     646        8        5     0.00000    5.44107    1.12328   25.19222
     647        8        6     0.00000    5.78833    2.03942   25.04501
     648        8        6     0.00000    6.20447    0.62539   25.58023
     649        9        5     0.00000   14.21702   17.27983   11.98176
     650        9        6     0.00000   13.72596   17.77851   12.68260
     651        9        6     0.00000   15.15971   17.56689   12.08428
     652       10        5     0.00000   14.03905    8.98520    1.81176
     653       10        6     0.00000   14.69835    8.25466    1.92480
     654       10        6     0.00000   14.42601    9.56643    1.10909
     655       11        5     0.00000   20.95067   15.21991   -0.02865
     656       11        6     0.00000   21.12995   14.81875    0.85883
     657       11        6     0.00000   21.76796   15.73804   -0.23948
     658       12        5     0.00000   20.70198    6.40163   19.91019
     659       12        6     0.00000   21.67148    6.27860   20.07081
     660       12        6     0.00000   20.27428    6.18528   20.77717
     661       13        5     0.00000   26.09337    3.67032   22.31685
     662       13        6     0.00000   26.66618    3.92557   23.08367
     663       13        6     0.00000   25.41251    3.06307   22.70223
     664       14        5     0.00000   14.16182   12.58139   16.90286
     665       14        6     0.00000   13.65972   13.40630   17.12368
     666       14        6     0.00000   13.76540   12.26725   16.05113
     667       15        5     0.00000   23.19565    2.58226   12.09953
     668       15        6     0.00000   22.25297    2.34015   12.28328
     669       15        6     0.00000   23.68461    2.29940   12.91235
     670       16        5     0.00000   10.05512    1.16508    2.35487
     671       16        6     0.00000    9.91396    0.52891    3.10145
     672       16        6     0.00000    9.15240    1.30493    1.97212
     673       17        5     0.00000   25.53817   20.25693   11.57693
     674       17        6     0.00000   26.32628   20.85445   11.52067
     675       17        6     0.00000   24.89727   20.74115   12.15684
     676       18        5     0.00000   14.68784   22.59287   14.85976
     677       18        6     0.00000   14.27959   21.77532   15.24199
     678       18        6     0.00000   14.08900   23.32920   15.14367
     679       19        5     0.00000    7.77491    8.48495    5.18240
     680       19        6     0.00000    8.51360    8.04751    5.67582
     681       19        6     0.00000    7.28806    9.00650    5.86956
     682       20        5     0.00000   17.11789    4.10538   17.58634
     683       20        6     0.00000   16.95018    4.38351   16.65076
     684       20        6     0.00000   16.91022    3.13694   17.60106
     685       21        5     0.00000   22.12758   24.06578   24.10679
     686       21        6     0.00000   21.92910   23.81132   23.17042
     687       21        6     0.00000   21.46223   23.57078   24.64832
     688       22        5     0.00000   25.78028   26.01792   12.02146
     689       22        6     0.00000   26.29710   25.36756   11.48203
     690       22        6     0.00000   25.25505   25.46141   12.65026
     691       23        5     0.00000    5.85274   13.39395   14.86029
     692       23        6     0.00000    6.03412   12.44495   15.07927
     693       23        6     0.00000    6.55200   13.63790   14.20256
     694       24        5     0.00000   10.46101   10.67078   13.24805
     695       24        6     0.00000    9.87400   10.12978   13.83453
     696       24        6     0.00000   11.14186   11.05248   13.85793
     697       25        5     0.00000   25.63885    0.36488    5.16768
     698       25        6     0.00000   25.06525    0.01262    4.44081
     699       25        6     0.00000   26.30893    0.93033    4.70659
     700       26        5     0.00000   16.73251   14.32533   11.57824
     701       26        6     0.00000   16.52457   13.35714   11.54749
     702       26        6     0.00000   15.99540   14.75671   11.07667
     703       27        5     0.00000   13.82560    7.62743   14.35293
     704       27        6     0.00000   13.37660    8.51018   14.35083
     705       27        6     0.00000   13.77723    7.31881   13.41288
     706       28        5     0.00000    1.77180    6.72707   12.87897
     707       28        6     0.00000    1.33411    5.84301   12.96808
     708       28        6     0.00000    1.64930    6.97287   11.92708
     709       29        5     0.00000   18.83791   20.34158   19.27613
     710       29        6     0.00000   19.62655   20.62680   19.80320
     711       29        6     0.00000   18.64154   21.11024   18.68307
     712       30        5     0.00000   10.98545   21.85445    0.41693
     713       30        6     0.00000   10.24992   21.39520   -0.06151
     714       30        6     0.00000   10.62320   22.75086    0.63380
     715       31        5     0.00000   16.73724    4.29807    9.03147
     716       31        6     0.00000   15.83136    3.89981    9.07800
     717       31        6     0.00000   17.15627    4.07068    9.90002
     718       32        5     0.00000   19.63102   13.25462   13.21230
     719       32        6     0.00000   20.46014   13.36582   12.68207
     720       32        6     0.00000   19.45988   14.14920   13.60136
     721      444        1     0.00000    8.28227    6.44343   51.25588
     722      444        1     0.00000    8.29147   19.58738   38.09932
     723      444        1     0.00000   21.42332    6.44606   38.11614
     724      444        1     0.00000   21.44672   19.58922   51.25930
     725      444        1     0.00000   17.97882   19.83185   51.24484
     726      444        1     0.00000   17.99380    6.70762   38.12061
     727      444        1     0.00000    4.85406   19.84395   38.10300
     728      444        1     0.00000    4.85906    6.71183   51.25063
     729      444        1     0.00000   18.00511    6.43528   27.60545
     730      444        1     0.00000   17.99223   19.58843   40.75597
     731      444        1     0.00000    4.86799    6.43028   40.75124
     732      444        1     0.00000    4.85774   19.57423   27.61307
     733      444        1     0.00000    8.27859   19.84973   27.61518
     734      444        1     0.00000    8.28069    6.71498   40.74993
     735      444        1     0.00000   21.42911   19.84763   40.75729
     736      444        1     0.00000   21.42148    6.71078   27.60624
     737      444        1     0.00000   24.97140    8.27491   32.71293
     738      444        1     0.00000   24.97088   21.42674   45.86029
     739      444        1     0.00000   11.82640    8.27727   45.85898
     740      444        1     0.00000   11.82929   21.42700   32.71713
     741      444        1     0.00000   24.97061   18.01194   46.13658
     742      444        1     0.00000   24.97298    4.87246   33.00972
     743      444        1     0.00000   11.82824   18.00721   32.98501
     744      444        1     0.00000   11.82535    4.87325   46.14867
     745      444        1     0.00000    1.30546   17.99801   32.72397
     746      444        1     0.00000    1.31702    4.86931   45.85635
     747      444        1     0.00000   14.45440   17.99643   45.87291
     748      444        1     0.00000   14.45782    4.87194   32.71529
     749      444        1     0.00000    1.31808    8.28043   46.13448
     750      444        1     0.00000    1.30756   21.42595   32.98763
     751      444        1     0.00000   14.46465    8.27780   33.00525
     752      444        1     0.00000   14.45282   21.43016   46.13211
     753      444        1     0.00000    6.42792   24.96036   34.56254
     754      444        1     0.00000    6.42976   11.82167   47.70281
     755      444        1     0.00000   19.57371   24.95431   47.72095
     756      444        1     0.00000   19.57266   11.81720   34.57674
     757      444        1     0.00000   19.84868   24.96141   44.30195
     758      444        1     0.00000   19.85288   11.81510   31.16483
     759      444        1     0.00000    6.71761   24.97166   31.15432
     760      444        1     0.00000    6.71656   11.82193   44.29459
     761      444        1     0.00000    6.42713    1.32176   44.30273
     762      444        1     0.00000    6.41924   14.46387   31.16115
     763      444        1     0.00000   19.57502    1.33201   31.16483
     764      444        1     0.00000   19.58159   14.47228   44.29853
     765      444        1     0.00000   19.85841    1.33516   34.57174
     766      444        1     0.00000   19.85814   14.47096   47.71806
     767      444        1     0.00000    6.71472    1.32649   47.70570
     768      444        1     0.00000    6.71787   14.47175   34.58200
     769      444        1     0.00000    6.43107    8.29383   27.60492
     770      444        1     0.00000    6.44474   21.43147   40.74230
     771      444        1     0.00000   19.58396    8.28726   40.76149
     772      444        1     0.00000   19.60736   21.44304   27.61176
     773      444        1     0.00000   19.82791   17.99065   27.59835
     774      444        1     0.00000   19.84263    4.85406   40.75597
     775      444        1     0.00000    6.70236   17.99801   40.74178
     776      444        1     0.00000    6.70236    4.87246   27.61123
     777      444        1     0.00000    6.42844   17.99722   51.26377
     778      444        1     0.00000    6.43370    4.86852   38.10931
     779      444        1     0.00000   19.58449   18.00038   38.11483
     780      444        1     0.00000   19.57344    4.86458   51.25168
     781      444        1     0.00000   19.85315    8.27990   51.25063
     782      444        1     0.00000   19.83922   21.43621   38.11640
     783      444        1     0.00000    6.71367    8.28358   38.11088
     784      444        1     0.00000    6.70788   21.42043   51.26614
     785      444        1     0.00000    8.27569   24.97166   46.15892
     786      444        1     0.00000    8.26413   11.83350   33.00288
     787      444        1     0.00000   21.42306   24.97929   33.01103
     788      444        1     0.00000   21.42622   11.82929   46.14394
     789      444        1     0.00000   18.01799   24.97429   32.72055
     790      444        1     0.00000   18.00590   11.82956   45.87344
     791      444        1     0.00000    4.87772   24.96667   45.85320
     792      444        1     0.00000    4.86852   11.82219   32.72922
     793      444        1     0.00000   18.00195    1.31177   46.15025
     794      444        1     0.00000   18.00669   14.45756   33.00972
     795      444        1     0.00000    4.86589    1.31650   33.00972
     796      444        1     0.00000    4.86563   14.46465   46.14131
     797      444        1     0.00000    8.27122    1.32570   32.72344
     798      444        1     0.00000    8.27596   14.46465   45.85661
     799      444        1     0.00000   21.41649    1.31939   45.87738
     800      444        1     0.00000   21.41938   14.45782   32.72633
     801      444        1     0.00000   24.96062    6.42897   44.29064
     802      444        1     0.00000   24.94748   19.58186   31.14249
     803      444        1     0.00000   11.81825    6.43738   31.15616
     804      444        1     0.00000   11.81115   19.58580   44.28302
     805      444        1     0.00000   24.95169   19.84474   34.57385
     806      444        1     0.00000   24.96457    6.71288   47.70307
     807      444        1     0.00000   11.80721   19.84132   47.71648
     808      444        1     0.00000   11.82035    6.72392   34.56333
     809      444        1     0.00000    1.32833    6.43028   34.55781
     810      444        1     0.00000    1.32491   19.58002   47.70097
     811      444        1     0.00000   14.46728    6.43133   47.70544
     812      444        1     0.00000   14.47175   19.58081   34.56254
     813      444        1     0.00000    1.32570   19.85814   44.28433
     814      444        1     0.00000    1.32281    6.71551   31.15326
     815      444        1     0.00000   14.47333   19.86051   31.14748
     816      444        1     0.00000   14.46728    6.72339   44.29958
     817      444        1     0.00000   18.03113   19.89048   27.59677
     818      444        1     0.00000   18.01852    6.72550   40.76254
     819      444        1     0.00000    4.88061   19.86813   40.74283
     820      444        1     0.00000    4.86799    6.73023   27.60440
     821      444        1     0.00000    8.26649    6.43554   27.61150
     822      444        1     0.00000    8.26728   19.56056   40.74099
     823      444        1     0.00000   21.40650    6.41714   40.75623
     824      444        1     0.00000   21.40098   19.54532   27.60992
     825      444        1     0.00000    8.26860   19.85183   51.25956
     826      444        1     0.00000    8.27753    6.72076   38.10878
     827      444        1     0.00000   21.40440   19.87497   38.11693
     828      444        1     0.00000   21.41596    6.71551   51.25089
     829      444        1     0.00000   18.01089    6.42923   51.25063
     830      444        1     0.00000   18.01957   19.56293   38.11561
     831      444        1     0.00000    4.86957    6.43160   38.11009
     832      444        1     0.00000    4.87010   19.56530   51.25983
     833      444        1     0.00000    1.32570   18.01562   46.13894
     834      444        1     0.00000    1.32701    4.86484   32.99657
     835      444        1     0.00000   14.47201   18.01641   32.99973
     836      444        1     0.00000   14.46676    4.86799   46.14131
     837      444        1     0.00000    1.32333    8.28043   32.71582
     838      444        1     0.00000    1.32412   21.42148   45.84741
     839      444        1     0.00000   14.46597    8.28489   45.86502
     840      444        1     0.00000   14.47070   21.42306   32.71240
     841      444        1     0.00000   24.96089    8.27596   46.13868
     842      444        1     0.00000   24.95379   21.40887   33.01050
     843      444        1     0.00000   11.82272    8.28805   33.00052
     844      444        1     0.00000   11.80984   21.40781   46.15629
     845      444        1     0.00000   24.95169   18.01746   32.70530
     846      444        1     0.00000   24.96457    4.86852   45.85714
     847      444        1     0.00000   11.81378   18.01983   45.84452
     848      444        1     0.00000   11.81667    4.87404   32.72029
     849      444        1     0.00000   19.85420    1.31597   44.31246
     850      444        1     0.00000   19.85315   14.45335   31.16483
     851      444        1     0.00000    6.70841    1.32544   31.15931
     852      444        1     0.00000    6.71288   14.46308   44.29275
     853      444        1     0.00000    6.42818    1.31466   34.57463
     854      444        1     0.00000    6.42923   14.46334   47.70492
     855      444        1     0.00000   19.56319    1.31150   47.71648
     856      444        1     0.00000   19.57055   14.45835   34.57332
     857      444        1     0.00000   19.85998   24.97929   34.57516
     858      444        1     0.00000   19.86498   11.82929   47.70991
     859      444        1     0.00000    6.70788   24.97166   47.71806
     860      444        1     0.00000    6.71866   11.82877   34.58173
     861      444        1     0.00000    6.44553   24.96720   44.29353
     862      444        1     0.00000    6.42240   11.83113   31.15826
     863      444        1     0.00000   19.58238   24.97692   31.15800
     864      444        1     0.00000   19.56845   11.83297   44.30904
     865      444        1     0.00000   19.87181   18.03508   51.24274
     866      444        1     0.00000   19.86077    4.88140   38.11299
     867      444        1     0.00000    6.72865   18.02325   38.10063
     868      444        1     0.00000    6.71971    4.87930   51.25746
     869      444        1     0.00000    6.42108    8.27675   51.25036
     870      444        1     0.00000    6.41661   21.40860   38.10089
     871      444        1     0.00000   19.55793    8.27096   38.12192
     872      444        1     0.00000   19.55136   21.38862   51.25536
     873      444        1     0.00000   19.85867    8.27517   27.60571
     874      444        1     0.00000   19.86340   21.40992   40.75676
     875      444        1     0.00000    6.71630    8.27753   40.75177
     876      444        1     0.00000    6.71393   21.41149   27.61596
     877      444        1     0.00000    6.42371   18.01142   27.61965
     878      444        1     0.00000    6.43133    4.86694   40.75071
     879      444        1     0.00000   19.55662   18.02561   40.75623
     880      444        1     0.00000   19.56792    4.87088   27.60703
     881      444        1     0.00000   18.00853    1.33148   32.72528
     882      444        1     0.00000   18.01773   14.47096   45.86161
     883      444        1     0.00000    4.86116    1.32018   45.86371
     884      444        1     0.00000    4.86615   14.47070   32.73106
     885      444        1     0.00000    8.28121    1.32649   46.14525
     886      444        1     0.00000    8.26255   14.46465   32.99946
     887      444        1     0.00000   21.42306    1.33227   33.00945
     888      444        1     0.00000   21.42070   14.46886   46.15367
     889      444        1     0.00000    8.27990   24.97088   32.71897
     890      444        1     0.00000    8.27990   11.82351   45.85845
     891      444        1     0.00000   21.41281   24.96273   45.86476
     892      444        1     0.00000   21.41912   11.81589   32.72554
     893      444        1     0.00000   18.01168   24.95747   46.15629
     894      444        1     0.00000   18.00826   11.81904   33.01418
     895      444        1     0.00000    4.86615   24.96325   32.99710
     896      444        1     0.00000    4.86563   11.82246   46.13947
     897      444        1     0.00000    1.30625   19.86419   34.55282
     898      444        1     0.00000    1.31702    6.71708   47.69861
     899      444        1     0.00000   14.44730   19.86524   47.69466
     900      444        1     0.00000   14.46045    6.71288   34.56780
     901      444        1     0.00000    1.31650    6.42976   44.28959
     902      444        1     0.00000    1.30178   19.56030   31.15905
     903      444        1     0.00000   14.46045    6.43659   31.15248
     904      444        1     0.00000   14.45256   19.55951   44.30852
     905      444        1     0.00000   24.97061   19.86550   44.29459
     906      444        1     0.00000   24.96930    6.70946   31.15169
     907      444        1     0.00000   11.82982   19.86682   31.15011
     908      444        1     0.00000   11.82666    6.71551   44.29327
     909      444        1     0.00000   24.97535    6.43896   34.57043
     910      444        1     0.00000   24.97403   19.57555   47.69966
     911      444        1     0.00000   11.82693    6.43764   47.71122
     912      444        1     0.00000   11.83087   19.56924   34.55098
     913      444        2     0.00000    7.32486    7.33748   26.28685
     914      444        2     0.00000    7.33064   20.47249   39.42133
     915      444        2     0.00000   20.46382    7.32644   39.43868
     916      444        2     0.00000   20.47643   20.46592   26.28974
     917      444        2     0.00000   18.95095   18.96278   26.27528
     918      444        2     0.00000   18.95384    5.81725   39.43763
     919      444        2     0.00000    5.82093   18.96278   39.42239
     920      444        2     0.00000    5.81646    5.82776   26.28711
     921      444        2     0.00000   18.95910    7.32749   26.28422
     922      444        2     0.00000   18.95910   20.46881   39.43606
     923      444        2     0.00000    5.81883    7.32880   39.43106
     924      444        2     0.00000    5.81646   20.46460   26.29473
     925      444        2     0.00000    7.32249   18.95515   26.29579
     926      444        2     0.00000    7.32933    5.81935   39.42948
     927      444        2     0.00000   20.46960   18.96120   39.43632
     928      444        2     0.00000   20.46881    5.81646   26.28501
     929      444        2     0.00000    0.00578    7.32802   33.61092
     930      444        2     0.00000    0.00394   20.46934   46.74593
     931      444        2     0.00000   13.14632    7.31960   46.74646
     932      444        2     0.00000   13.15052   20.46934   33.60514
     933      444        2     0.00000    0.00394   18.96304   45.23885
     934      444        2     0.00000    0.00421    5.81751   32.10436
     935      444        2     0.00000   13.15052   18.96199   32.09463
     936      444        2     0.00000   13.14632    5.81357   45.23858
     937      444        2     0.00000   -0.01498   18.95568   33.61407
     938      444        2     0.00000   -0.00315    5.82303   46.74751
     939      444        2     0.00000   13.13107   18.96015   46.75277
     940      444        2     0.00000   13.13869    5.82330   33.61434
     941      444        2     0.00000   -0.00499    7.33222   45.23464
     942      444        2     0.00000   -0.01630   20.46539   32.10410
     943      444        2     0.00000   13.14158    7.33459   32.10410
     944      444        2     0.00000   13.13186   20.47091   45.24437
     945      444        2     0.00000    7.32539   -0.00079   33.61854
     946      444        2     0.00000    7.32539   13.14316   46.75224
     947      444        2     0.00000   20.46697   -0.00657   46.77012
     948      444        2     0.00000   20.47170   13.13764   33.62696
     949      444        2     0.00000   18.95752   -0.00710   45.25883
     950      444        2     0.00000   18.96067   13.13685   32.11856
     951      444        2     0.00000    5.81672    0.00026   32.10778
     952      444        2     0.00000    5.81488   13.14290   45.24121
     953      444        2     0.00000    7.33222    0.00263   45.25015
     954      444        2     0.00000    7.29016   13.14868   32.13380
     955      444        2     0.00000   20.46855    0.01130   32.11856
     956      444        2     0.00000   20.46776   13.15052   45.25804
     957      444        2     0.00000   18.95726    0.01104   33.62748
     958      444        2     0.00000   18.95910   13.15000   46.76828
     959      444        2     0.00000    5.81830    0.00210   46.75697
     960      444        2     0.00000    5.79543   13.14947   33.65771
     961      444        3     0.00000    8.48863    4.66794   49.64969
     962      444        3     0.00000    7.80935    5.35195   50.78113
     963      444        3     0.00000    8.49625   17.81216   36.49207
     964      444        3     0.00000    7.81828   18.49669   37.62377
     965      444        3     0.00000   17.79112   21.60182   49.63865
     966      444        3     0.00000   18.46094   20.91939   50.77350
     967      444        3     0.00000   17.79086    8.48258   36.51600
     968      444        3     0.00000   18.46804    7.79857   37.64611
     969      444        3     0.00000    4.65427    8.48258   49.64023
     970      444        3     0.00000    5.33250    7.80172   50.77350
     971      444        3     0.00000   17.79927    4.66637   29.21663
     972      444        3     0.00000   18.47855    5.34564   28.08310
     973      444        3     0.00000   17.79112   17.81216   42.36374
     974      444        3     0.00000   18.46672   18.49801   41.23205
     975      444        3     0.00000    4.65848    4.65900   42.35822
     976      444        3     0.00000    5.34065    5.33960   41.22652
     977      444        3     0.00000    8.48600   21.62653   29.21953
     978      444        3     0.00000    7.80514   20.94042   28.09046
     979      444        3     0.00000    8.48915    8.48652   42.35533
     980      444        3     0.00000    7.80751    7.80514   41.22574
     981      444        3     0.00000   23.35838    8.47890   30.94796
     982      444        3     0.00000   24.49323    7.79962   31.62487
     983      444        3     0.00000   10.22179    8.48731   44.08507
     984      444        3     0.00000   11.35164    7.80567   44.76751
     985      444        3     0.00000   23.36889   17.80585   47.91443
     986      444        3     0.00000   24.49743   18.48539   47.22832
     987      444        3     0.00000   23.36337    4.67162   34.77837
     988      444        3     0.00000   24.49796    5.34854   34.09909
     989      444        3     0.00000   10.22152   17.80322   34.75707
     990      444        3     0.00000   11.35322   18.48066   34.07569
     991      444        3     0.00000    2.91270   17.79454   30.94980
     992      444        3     0.00000    1.77969   18.47172   31.63249
     993      444        3     0.00000   16.06532   17.79875   44.09979
     994      444        3     0.00000   14.93074   18.47146   44.78301
     995      444        3     0.00000   16.06795    4.66584   30.94717
     996      444        3     0.00000   14.93521    5.34591   31.62618
     997      444        3     0.00000    2.92611    8.48495   47.90602
     998      444        3     0.00000    1.79415    7.80619   47.22464
     999      444        3     0.00000   16.06611    8.48389   34.78047
    1000      444        3     0.00000   14.93784    7.80304   34.09593
    1001      444        3     0.00000    4.65559   23.35233   34.76496
    1002      444        3     0.00000    5.33855   24.48481   34.08673
    1003      444        3     0.00000    4.65874   10.21443   47.90943
    1004      444        3     0.00000    5.33986   11.34586   47.22910
    1005      444        3     0.00000   21.62075   23.35470   44.09559
    1006      444        3     0.00000   20.93910   24.48639   44.77513
    1007      444        3     0.00000   21.62548   10.20891   30.95269
    1008      444        3     0.00000   20.94436   11.33981   31.63591
    1009      444        3     0.00000    8.48968   23.36521   30.94559
    1010      444        3     0.00000    7.80803   24.49612   31.62750
    1011      444        3     0.00000    4.65638    2.92847   44.09138
    1012      444        3     0.00000    5.33566    1.79652   44.77408
    1013      444        3     0.00000    4.64954   16.07006   30.95111
    1014      444        3     0.00000    5.33487   14.94415   31.63749
    1015      444        3     0.00000   21.62811    2.94424   34.77626
    1016      444        3     0.00000   20.94883    1.81045   34.09804
    1017      444        3     0.00000   21.63389   16.07663   47.92337
    1018      444        3     0.00000   20.94909   14.94520   47.24409
    1019      444        3     0.00000    8.48994   16.07321   34.76680
    1020      444        3     0.00000    7.80383   14.94204   34.09488
    1021      444        3     0.00000    4.65769    8.49783   29.21111
    1022      444        3     0.00000    5.34065    7.82012   28.07995
    1023      444        3     0.00000    4.67267   21.63336   42.35060
    1024      444        3     0.00000    5.35485   20.95698   41.21890
    1025      444        3     0.00000   21.60865   17.77798   29.21006
    1026      444        3     0.00000   20.92149   18.45700   28.07942
    1027      444        3     0.00000   21.61549    4.65138   42.36611
    1028      444        3     0.00000   20.93332    5.32751   41.23231
    1029      444        3     0.00000    8.46865    4.67241   29.22689
    1030      444        3     0.00000    7.79121    5.34722   28.08967
    1031      444        3     0.00000    4.65979   17.80006   49.64812
    1032      444        3     0.00000    5.34118   18.47461   50.78402
    1033      444        3     0.00000    4.66190    4.66032   36.50364
    1034      444        3     0.00000    5.34354    5.34196   37.63376
    1035      444        3     0.00000   21.62364    8.48363   49.64128
    1036      444        3     0.00000   20.94252    7.80514   50.77403
    1037      444        3     0.00000   21.61523   21.63941   36.50969
    1038      444        3     0.00000   20.93016   20.96355   37.64086
    1039      444        3     0.00000    8.48679    8.49415   36.50390
    1040      444        3     0.00000    7.80435    7.81171   37.63455
    1041      444        3     0.00000    8.47811   23.36127   47.92731
    1042      444        3     0.00000    7.79936   24.49533   47.24751
    1043      444        3     0.00000    8.48731   10.22652   34.77311
    1044      444        3     0.00000    7.80488   11.35821   34.09830
    1045      444        3     0.00000   17.81321   23.36495   30.95295
    1046      444        3     0.00000   18.49301   24.49848   31.63144
    1047      444        3     0.00000   17.80111   10.22678   44.09769
    1048      444        3     0.00000   18.47908   11.35637   44.78196
    1049      444        3     0.00000    4.65638   10.22126   30.94743
    1050      444        3     0.00000    5.33750   11.34980   31.63433
    1051      444        3     0.00000   17.79849    2.92505   47.91574
    1052      444        3     0.00000   18.47540    1.78915   47.23962
    1053      444        3     0.00000   17.80164   16.06638   34.77863
    1054      444        3     0.00000   18.48013   14.93389   34.09935
    1055      444        3     0.00000    4.65664    2.92111   34.78099
    1056      444        3     0.00000    5.33802    1.79021   34.10119
    1057      444        3     0.00000    8.46996    2.94346   30.96031
    1058      444        3     0.00000    7.79568    1.80466   31.63565
    1059      444        3     0.00000    8.48337   16.06900   44.08271
    1060      444        3     0.00000    7.80304   14.93889   44.76566
    1061      444        3     0.00000   23.35102    4.65795   44.09375
    1062      444        3     0.00000   24.48586    5.33986   44.76803
    1063      444        3     0.00000   10.20339    4.67215   30.95505
    1064      444        3     0.00000   11.33981    5.34906   31.63118
    1065      444        3     0.00000   23.34839   21.62522   34.77994
    1066      444        3     0.00000   24.47745   20.93674   34.10066
    1067      444        3     0.00000   10.20286   21.62101   47.92416
    1068      444        3     0.00000   11.33271   20.93384   47.24514
    1069      444        3     0.00000   10.21732    8.49625   34.77258
    1070      444        3     0.00000   11.34665    7.81513   34.09067
    1071      444        3     0.00000    2.93215    4.65822   34.77074
    1072      444        3     0.00000    1.80335    5.33934   34.08621
    1073      444        3     0.00000   16.07347    4.66058   47.91180
    1074      444        3     0.00000   14.94309    5.34170   47.23147
    1075      444        3     0.00000    2.93715   21.63021   44.07902
    1076      444        3     0.00000    1.80204   20.94856   44.75778
    1077      444        3     0.00000    2.92742    8.48915   30.94428
    1078      444        3     0.00000    1.79783    7.80645   31.62566
    1079      444        3     0.00000   16.08451   21.63047   30.94717
    1080      444        3     0.00000   14.94940   20.94988   31.62356
    1081      444        3     0.00000   17.81899   21.64362   29.21374
    1082      444        3     0.00000   18.50905   20.97433   28.07942
    1083      444        3     0.00000   17.80874    8.49651   42.36663
    1084      444        3     0.00000   18.49275    7.81539   41.23730
    1085      444        3     0.00000    8.47680   17.79481   42.34797
    1086      444        3     0.00000    7.79305   18.47146   41.21706
    1087      444        3     0.00000    8.47469   21.62758   49.65679
    1088      444        3     0.00000    7.79594   20.94515   50.78770
    1089      444        3     0.00000   17.80374    4.66032   49.64233
    1090      444        3     0.00000   18.48434    5.33934   50.77455
    1091      444        3     0.00000   17.81084   17.79901   36.50574
    1092      444        3     0.00000   18.49380   18.47435   37.63875
    1093      444        3     0.00000    2.93215   17.80847   47.91154
    1094      444        3     0.00000    1.80098   18.48959   47.22910
    1095      444        3     0.00000   16.07926   17.80742   34.77258
    1096      444        3     0.00000   14.94809   18.49012   34.09015
    1097      444        3     0.00000   16.07268    8.49493   44.09375
    1098      444        3     0.00000   14.94152    7.81382   44.77381
    1099      444        3     0.00000   23.35496    8.48153   47.91022
    1100      444        3     0.00000   24.48665    7.80172   47.22937
    1101      444        3     0.00000   23.34287   17.80059   30.94138
    1102      444        3     0.00000   24.47351   18.49012   31.61646
    1103      444        3     0.00000   10.20969   17.80585   44.07640
    1104      444        3     0.00000   11.33797   18.49327   44.75489
    1105      444        3     0.00000   21.61812    2.92900   44.10584
    1106      444        3     0.00000   20.94173    1.79546   44.78748
    1107      444        3     0.00000   21.62022   16.05954   30.95032
    1108      444        3     0.00000   20.94357   14.93048   31.63591
    1109      444        3     0.00000    4.65953   16.07295   47.91285
    1110      444        3     0.00000    5.33934   14.94020   47.23173
    1111      444        3     0.00000   21.63021   23.37152   34.78205
    1112      444        3     0.00000   20.95067   24.50400   34.10145
    1113      444        3     0.00000   21.62995   10.21758   47.91259
    1114      444        3     0.00000   20.95356   11.35269   47.23410
    1115      444        3     0.00000    4.67346   23.35943   44.08349
    1116      444        3     0.00000    5.35432   24.49060   44.76461
    1117      444        3     0.00000   21.64151   17.81741   49.64575
    1118      444        3     0.00000   20.96591   18.50458   50.77482
    1119      444        3     0.00000   21.62364    4.68240   36.49943
    1120      444        3     0.00000   20.94804    5.35853   37.63560
    1121      444        3     0.00000    4.64691   21.61917   36.49549
    1122      444        3     0.00000    5.32619   20.93489   37.62640
    1123      444        3     0.00000   21.62653    8.48021   29.21742
    1124      444        3     0.00000   20.94778    7.80067   28.08310
    1125      444        3     0.00000   21.62863   21.62259   42.36453
    1126      444        3     0.00000   20.95330   20.93779   41.23283
    1127      444        3     0.00000    4.64639   17.80111   29.21979
    1128      444        3     0.00000    5.33119   18.48486   28.09178
    1129      444        3     0.00000   17.80322    2.93846   30.95242
    1130      444        3     0.00000   18.48434    1.80808   31.63617
    1131      444        3     0.00000   17.80506   16.07715   44.09243
    1132      444        3     0.00000   18.49065   14.94704   44.77145
    1133      444        3     0.00000    8.48521    2.93610   47.91653
    1134      444        3     0.00000    7.80514    1.80361   47.23410
    1135      444        3     0.00000    8.48968   10.21784   44.08533
    1136      444        3     0.00000    7.80751   11.34770   44.76777
    1137      444        3     0.00000   17.80322   23.34103   47.91706
    1138      444        3     0.00000   18.48513   24.47719   47.24435
    1139      444        3     0.00000   17.79717   10.21495   34.78625
    1140      444        3     0.00000   18.48092   11.34375   34.10461
    1141      444        3     0.00000    2.91638   21.62916   34.76233
    1142      444        3     0.00000    1.78311   20.95303   34.07884
    1143      444        3     0.00000   16.06296   21.62075   47.90575
    1144      444        3     0.00000   14.92758   20.95251   47.22148
    1145      444        3     0.00000    2.92505    4.65979   44.08717
    1146      444        3     0.00000    1.79283    5.34091   44.76566
    1147      444        3     0.00000   23.35943   21.63179   44.09348
    1148      444        3     0.00000   24.49375   20.95409   44.77092
    1149      444        3     0.00000   10.22047   21.63494   30.94717
    1150      444        3     0.00000   11.35322   20.95540   31.62645
    1151      444        3     0.00000   10.21995    4.66479   47.92021
    1152      444        3     0.00000   11.35006    5.34748   47.23883
    1153      444        3     0.00000    9.64372    5.22577   49.07346
    1154      444        4     0.00000   10.06669    6.12850   49.49617
    1155      444        3     0.00000    9.65029   18.36683   35.91243
    1156      444        4     0.00000   10.07379   19.27140   36.33067
    1157      444        3     0.00000   16.63682   21.04820   49.05559
    1158      444        4     0.00000   16.20360   20.14757   49.47567
    1159      444        3     0.00000   16.63998    7.92265   35.93503
    1160      444        4     0.00000   16.21648    7.01940   36.35590
    1161      444        3     0.00000    3.49103   21.06476   35.91689
    1162      444        4     0.00000    3.06438   20.16361   36.34039
    1163      444        3     0.00000   16.64497    5.22630   29.79339
    1164      444        4     0.00000   16.22174    6.12876   29.37016
    1165      444        3     0.00000   16.63761   18.36578   42.94628
    1166      444        4     0.00000   16.21070   19.26824   42.52620
    1167      444        3     0.00000    3.49208   18.35947   29.79891
    1168      444        4     0.00000    3.06780   19.26167   29.37778
    1169      444        3     0.00000    9.63846   21.06765   29.79917
    1170      444        4     0.00000   10.05801   20.16072   29.38199
    1171      444        3     0.00000    9.64372    7.92659   42.93182
    1172      444        4     0.00000   10.06695    7.02518   42.50727
    1173      444        3     0.00000   22.77925    9.63005   31.51236
    1174      444        4     0.00000   23.20196   10.05118   32.41614
    1175      444        3     0.00000   22.77663   22.78162   44.65631
    1176      444        4     0.00000   23.19776   23.20591   45.55930
    1177      444        3     0.00000    9.64372    9.64030   44.64553
    1178      444        4     0.00000   10.06459   10.06222   45.54931
    1179      444        3     0.00000   22.78556   16.65338   47.35791
    1180      444        4     0.00000   23.19960   16.23304   46.45177
    1181      444        3     0.00000   22.78688    3.51601   34.22054
    1182      444        4     0.00000   23.21406    3.08725   33.32228
    1183      444        3     0.00000    9.64109    3.51180   47.35870
    1184      444        4     0.00000   10.06353    3.08909   46.45571
    1185      444        3     0.00000    3.49314   16.64287   31.50920
    1186      444        4     0.00000    3.07174   16.21832   32.41088
    1187      444        3     0.00000    3.50313    3.50759   44.65052
    1188      444        4     0.00000    3.08147    3.08830   45.55562
    1189      444        3     0.00000    3.50575    9.63767   47.34687
    1190      444        4     0.00000    3.08410   10.06222   46.44415
    1191      444        3     0.00000    3.50129   22.77873   34.20214
    1192      444        4     0.00000    3.08147   23.20275   33.29888
    1193      444        3     0.00000    5.21315   22.77137   35.91847
    1194      444        4     0.00000    6.11798   23.19013   36.34118
    1195      444        3     0.00000   18.36052   22.75244   49.06610
    1196      444        4     0.00000   19.26141   23.16910   49.49617
    1197      444        3     0.00000   18.35500    9.63609   35.94029
    1198      444        4     0.00000   19.25878   10.05670   36.36379
    1199      444        3     0.00000   21.06160   22.77321   42.94312
    1200      444        4     0.00000   20.15651   23.19224   42.52068
    1201      444        3     0.00000   21.06502    9.63241   29.79812
    1202      444        4     0.00000   20.16124   10.05512   29.37725
    1203      444        3     0.00000    7.92554   22.78162   29.79576
    1204      444        4     0.00000    7.02097   23.20196   29.37489
    1205      444        3     0.00000    5.21894    3.50654   42.93839
    1206      444        4     0.00000    6.12271    3.08410   42.51700
    1207      444        3     0.00000   18.36236    3.51496   29.79707
    1208      444        4     0.00000   19.26561    3.09277   29.37436
    1209      444        3     0.00000   21.06055    3.53046   35.92136
    1210      444        4     0.00000   20.15336    3.11275   36.34013
    1211      444        3     0.00000    7.92422    3.51653   49.06873
    1212      444        4     0.00000    7.01861    3.09698   49.48618
    1213      444        3     0.00000    5.21447    9.65187   29.78866
    1214      444        4     0.00000    6.11746   10.07615   29.36858
    1215      444        3     0.00000   18.36683    9.64976   42.94549
    1216      444        4     0.00000   19.27140   10.07168   42.52488
    1217      444        3     0.00000   21.05608   16.62473   29.79287
    1218      444        4     0.00000   20.15336   16.19755   29.37515
    1219      444        3     0.00000    7.91976   16.64234   42.92919
    1220      444        4     0.00000    7.01703   16.21753   42.50885
    1221      444        3     0.00000    7.90530    3.52337   29.81022
    1222      444        4     0.00000    7.00310    3.09908   29.38777
    1223      444        3     0.00000    5.21841   16.64708   49.06873
    1224      444        4     0.00000    6.12061   16.22331   49.49118
    1225      444        3     0.00000    5.21762    3.50102   35.93319
    1226      444        4     0.00000    6.11746    3.07595   36.35958
    1227      444        3     0.00000   18.36552   16.64287   35.93056
    1228      444        4     0.00000   19.26640   16.21674   36.35433
    1229      444        3     0.00000   21.06581    9.63846   49.06400
    1230      444        4     0.00000   20.16229   10.06091   49.48513
    1231      444        3     0.00000    7.92317    9.64372   35.92242
    1232      444        4     0.00000    7.01519   10.06012   36.33987
    1233      444        3     0.00000    9.62873   22.77794   47.36396
    1234      444        4     0.00000   10.05144   23.19907   46.45992
    1235      444        3     0.00000    9.63741    9.64740   34.20844
    1236      444        4     0.00000   10.05565   10.06511   33.29967
    1237      444        3     0.00000   16.65917   22.78451   31.51183
    1238      444        4     0.00000   16.23199   23.20880   32.41324
    1239      444        3     0.00000   16.64760    9.64845   44.65526
    1240      444        4     0.00000   16.22226   10.07221   45.55667
    1241      444        3     0.00000    3.50234    9.64319   31.50500
    1242      444        4     0.00000    3.08015   10.06511   32.40851
    1243      444        3     0.00000   16.64681    3.50391   47.35397
    1244      444        4     0.00000   16.22069    3.07884   46.45414
    1245      444        3     0.00000   16.65076   16.64839   34.21659
    1246      444        4     0.00000   16.22542   16.22489   33.31544
    1247      444        3     0.00000    3.50497    3.49945   34.21712
    1248      444        4     0.00000    3.07963    3.07306   33.31702
    1249      444        3     0.00000    9.62584    3.51942   31.51761
    1250      444        4     0.00000   10.05144    3.09566   32.41876
    1251      444        3     0.00000    9.63557   16.65181   44.64132
    1252      444        4     0.00000   10.05933   16.23330   45.54589
    1253      444        3     0.00000   22.77032    5.21447   42.93997
    1254      444        4     0.00000   23.19303    6.11562   42.51305
    1255      444        3     0.00000   22.76112   18.34843   29.78498
    1256      444        4     0.00000   23.17489   19.25457   29.36148
    1257      444        3     0.00000    9.62374    5.23287   29.80233
    1258      444        4     0.00000   10.04986    6.13218   29.37541
    1259      444        3     0.00000   22.76085   21.06581   35.92820
    1260      444        4     0.00000   23.16884   20.15309   36.34223
    1261      444        3     0.00000   22.77531    7.92028   49.06242
    1262      444        4     0.00000   23.19644    7.01624   49.48461
    1263      444        3     0.00000    9.64345    7.93684   35.92925
    1264      444        4     0.00000   10.06616    7.03359   36.35301
    1265      444        3     0.00000    3.51311    5.22419   35.92005
    1266      444        4     0.00000    3.09829    6.13481   36.33251
    1267      444        3     0.00000    3.50838   18.36578   49.06821
    1268      444        4     0.00000    3.08594   19.26850   49.49223
    1269      444        3     0.00000    3.51732   21.07185   42.92551
    1270      444        4     0.00000    3.09487   20.16965   42.50070
    1271      444        3     0.00000    3.50970    7.92975   29.79287
    1272      444        4     0.00000    3.09172    7.02544   29.37068
    1273      444        3     0.00000   16.66732   21.07238   29.79287
    1274      444        4     0.00000   16.25013   20.16361   29.37384
    1275      444        3     0.00000   16.65365    7.93527   42.94128
    1276      444        4     0.00000   16.23120    7.03385   42.51647
    1277      444        3     0.00000    9.62952   18.36105   42.92262
    1278      444        4     0.00000   10.04934   19.26430   42.49781
    1279      444        3     0.00000    9.62505   21.06397   49.07793
    1280      444        4     0.00000   10.04645   20.16150   49.50143
    1281      444        3     0.00000   16.65286    5.22367   49.06269
    1282      444        4     0.00000   16.23304    6.12981   49.48224
    1283      444        3     0.00000   16.66259   18.36841   35.92347
    1284      444        4     0.00000   16.24540   19.27508   36.34381
    1285      444        3     0.00000    3.50996   16.65575   47.35003
    1286      444        4     0.00000    3.08673   16.23409   46.44704
    1287      444        3     0.00000    3.51785   22.78162   44.64237
    1288      444        4     0.00000    3.09619   23.20301   45.54589
    1289      444        3     0.00000   22.78031    9.63636   47.35055
    1290      444        4     0.00000   23.20249   10.05775   46.44678
    1291      444        3     0.00000   22.78083   22.78609   34.22133
    1292      444        4     0.00000   23.20617   23.20643   33.31860
    1293      444        3     0.00000   22.76926   16.64865   31.50973
    1294      444        4     0.00000   23.19723   16.22989   32.41219
    1295      444        3     0.00000   22.77242    3.50891   44.66235
    1296      444        4     0.00000   23.19671    3.09014   45.56666
    1297      444        3     0.00000   21.05503    3.50234   42.95127
    1298      444        4     0.00000   20.15125    3.07831   42.53172
    1299      444        3     0.00000   18.36184    3.50523   49.06610
    1300      444        4     0.00000   19.26325    3.08042   49.48881
    1301      444        3     0.00000   21.06555   22.79818   35.93530
    1302      444        4     0.00000   20.16755   23.22878   36.36037
    1303      444        3     0.00000    7.91529   22.78320   49.08030
    1304      444        4     0.00000    7.01335   23.20880   49.50301
    1305      444        3     0.00000    5.23497   22.78346   42.93077
    1306      444        4     0.00000    6.14006   23.20407   42.51016
    1307      444        3     0.00000   18.37524   22.79240   29.79917
    1308      444        4     0.00000   19.27849   23.21511   29.38067
    1309      444        3     0.00000   21.07764   16.66022   49.07530
    1310      444        4     0.00000   20.17728   16.23725   49.50301
    1311      444        3     0.00000    7.93159   16.65891   35.91742
    1312      444        4     0.00000    7.02781   16.24172   36.34276
    1313      444        3     0.00000    5.21736    9.63557   49.06321
    1314      444        4     0.00000    6.12193   10.05565   49.48566
    1315      444        3     0.00000    7.92817    9.63977   42.93235
    1316      444        4     0.00000    7.02439   10.06117   42.50911
    1317      444        3     0.00000    5.20474   16.64471   29.79313
    1318      444        4     0.00000    6.10536   16.22253   29.36700
    1319      444        3     0.00000   18.35921   16.65917   42.93787
    1320      444        4     0.00000   19.26220   16.24014   42.51200
    1321      444        3     0.00000   16.64865    3.51548   31.51131
    1322      444        4     0.00000   16.22699    3.09435   32.41535
    1323      444        3     0.00000   16.65023   16.64839   44.65710
    1324      444        4     0.00000   16.22989   16.22174   45.55930
    1325      444        3     0.00000    9.63898   16.65049   34.19793
    1326      444        4     0.00000   10.05854   16.22647   33.29336
    1327      444        3     0.00000    9.64608   22.79187   31.50395
    1328      444        4     0.00000   10.07037   23.21695   32.40562
    1329      444        3     0.00000   16.64734   22.77321   47.35213
    1330      444        4     0.00000   16.23357   23.19697   46.44546
    1331      444        3     0.00000   16.64497    9.63793   34.22290
    1332      444        4     0.00000   16.22384   10.06196   33.31991
    1333      444        3     0.00000    3.50207    7.92291   49.06006
    1334      444        4     0.00000    3.07936    7.01913   49.48040
    1335      444        3     0.00000    3.50391    5.21973   42.93366
    1336      444        4     0.00000    3.08068    6.12193   42.50911
    1337      444        3     0.00000   22.78399   21.06817   42.94128
    1338      444        4     0.00000   23.20932   20.16624   42.51989
    1339      444        3     0.00000   22.78004    7.91923   29.79444
    1340      444        4     0.00000   23.20380    7.01782   29.36989
    1341      444        3     0.00000   22.78004    5.23918   35.92531
    1342      444        4     0.00000   23.20223    6.14322   36.34644
    1343      444        3     0.00000   22.79608   18.37077   49.06768
    1344      444        4     0.00000   23.22194   19.27087   49.49302
    1345       33        5     0.00000   11.06983    9.14766   52.07002
    1346       33        6     0.00000   11.33087   10.10191   52.11655
    1347       33        6     0.00000   11.73755    8.73389   51.46671
    1348       34        5     0.00000   13.03512    2.11276   52.42727
    1349       34        6     0.00000   12.04722    2.09331   52.49431
    1350       34        6     0.00000   13.26593    1.31518   51.88706
    1351       35        5     0.00000   12.67760   10.66158   30.84464
    1352       35        6     0.00000   13.03591   11.47493   31.28181
    1353       35        6     0.00000   11.69338   10.76516   30.88960
    1354       36        5     0.00000   22.98956   17.14208   37.50574
    1355       36        6     0.00000   23.48219   17.93492   37.83775
    1356       36        6     0.00000   22.56843   17.44307   36.66084
    1357       37        5     0.00000   11.44233   21.41859   38.00153
    1358       37        6     0.00000   11.54801   20.44673   38.16162
    1359       37        6     0.00000   10.74728   21.48484   37.29885
    1360       38        5     0.00000   22.55160   25.78974   37.78518
    1361       38        6     0.00000   22.69802   25.60126   36.82383
    1362       38        6     0.00000   22.21328   24.93644   38.15741
    1363       39        5     0.00000    7.78174    0.43533   38.03780
    1364       39        6     0.00000    8.19368    0.52497   38.93422
    1365       39        6     0.00000    6.89610    0.02603   38.20841
    1366       40        5     0.00000    5.44107    1.12328   51.48012
    1367       40        6     0.00000    5.78833    2.03942   51.33291
    1368       40        6     0.00000    6.20447    0.62539   51.86813
    1369       41        5     0.00000   14.21702   17.27983   38.26966
    1370       41        6     0.00000   13.72596   17.77851   38.97050
    1371       41        6     0.00000   15.15971   17.56689   38.37218
    1372       42        5     0.00000   14.03905    8.98520   28.09966
    1373       42        6     0.00000   14.69835    8.25466   28.21270
    1374       42        6     0.00000   14.42601    9.56643   27.39699
    1375       43        5     0.00000   20.95067   15.21991   26.25925
    1376       43        6     0.00000   21.12995   14.81875   27.14673
    1377       43        6     0.00000   21.76796   15.73804   26.04842
    1378       44        5     0.00000   20.70198    6.40163   46.19809
    1379       44        6     0.00000   21.67148    6.27860   46.35871
    1380       44        6     0.00000   20.27428    6.18528   47.06507
    1381       45        5     0.00000   26.09337    3.67032   48.60475
    1382       45        6     0.00000   26.66618    3.92557   49.37157
    1383       45        6     0.00000   25.41251    3.06307   48.99013
    1384       46        5     0.00000   14.16182   12.58139   43.19076
    1385       46        6     0.00000   13.65972   13.40630   43.41158
    1386       46        6     0.00000   13.76540   12.26725   42.33903
    1387       47        5     0.00000   23.19565    2.58226   38.38743
    1388       47        6     0.00000   22.25297    2.34015   38.57118
    1389       47        6     0.00000   23.68461    2.29940   39.20025
    1390       48        5     0.00000   10.05512    1.16508   28.64277
    1391       48        6     0.00000    9.91396    0.52891   29.38935
    1392       48        6     0.00000    9.15240    1.30493   28.26002
    1393       49        5     0.00000   25.53817   20.25693   37.86483
    1394       49        6     0.00000   26.32628   20.85445   37.80857
    1395       49        6     0.00000   24.89727   20.74115   38.44474
    1396       50        5     0.00000   14.68784   22.59287   41.14766
    1397       50        6     0.00000   14.27959   21.77532   41.52989
    1398       50        6     0.00000   14.08900   23.32920   41.43157
    1399       51        5     0.00000    7.77491    8.48495   31.47030
    1400       51        6     0.00000    8.51360    8.04751   31.96372
    1401       51        6     0.00000    7.28806    9.00650   32.15746
    1402       52        5     0.00000   17.11789    4.10538   43.87424
    1403       52        6     0.00000   16.95018    4.38351   42.93866
    1404       52        6     0.00000   16.91022    3.13694   43.88896
    1405       53        5     0.00000   22.12758   24.06578   50.39469
    1406       53        6     0.00000   21.92910   23.81132   49.45832
    1407       53        6     0.00000   21.46223   23.57078   50.93622
    1408       54        5     0.00000   25.78028   26.01792   38.30936
    1409       54        6     0.00000   26.29710   25.36756   37.76993
    1410       54        6     0.00000   25.25505   25.46141   38.93816
    1411       55        5     0.00000    5.85274   13.39395   41.14819
    1412       55        6     0.00000    6.03412   12.44495   41.36717
    1413       55        6     0.00000    6.55200   13.63790   40.49046
    1414       56        5     0.00000   10.46101   10.67078   39.53595
    1415       56        6     0.00000    9.87400   10.12978   40.12243
    1416       56        6     0.00000   11.14186   11.05248   40.14583
    1417       57        5     0.00000   25.63885    0.36488   31.45558
    1418       57        6     0.00000   25.06525    0.01262   30.72871
    1419       57        6     0.00000   26.30893    0.93033   30.99449
    1420       58        5     0.00000   16.73251   14.32533   37.86614
    1421       58        6     0.00000   16.52457   13.35714   37.83539
    1422       58        6     0.00000   15.99540   14.75671   37.36457
    1423       59        5     0.00000   13.82560    7.62743   40.64083
    1424       59        6     0.00000   13.37660    8.51018   40.63873
    1425       59        6     0.00000   13.77723    7.31881   39.70078
    1426       60        5     0.00000    1.77180    6.72707   39.16687
    1427       60        6     0.00000    1.33411    5.84301   39.25598
    1428       60        6     0.00000    1.64930    6.97287   38.21498
    1429       61        5     0.00000   18.83791   20.34158   45.56403
    1430       61        6     0.00000   19.62655   20.62680   46.09110
    1431       61        6     0.00000   18.64154   21.11024   44.97097
    1432       62        5     0.00000   10.98545   21.85445   26.70483
    1433       62        6     0.00000   10.24992   21.39520   26.22639
    1434       62        6     0.00000   10.62320   22.75086   26.92170
    1435       63        5     0.00000   16.73724    4.29807   35.31937
    1436       63        6     0.00000   15.83136    3.89981   35.36590
    1437       63        6     0.00000   17.15627    4.07068   36.18792
    1438       64        5     0.00000   19.63102   13.25462   39.50020
    1439       64        6     0.00000   20.46014   13.36582   38.96997
    1440       64        6     0.00000   19.45988   14.14920   39.88926
    1441      444        1     0.00000    8.28227   32.73133   24.96798
    1442      444        1     0.00000    8.29147   45.87528   11.81142
    1443      444        1     0.00000   21.42332   32.73396   11.82824
    1444      444        1     0.00000   21.44672   45.87712   24.97140
    1445      444        1     0.00000   17.97882   46.11975   24.95694
    1446      444        1     0.00000   17.99380   32.99552   11.83271
    1447      444        1     0.00000    4.85406   46.13185   11.81510
    1448      444        1     0.00000    4.85906   32.99973   24.96273
    1449      444        1     0.00000   18.00511   32.72318    1.31755
    1450      444        1     0.00000   17.99223   45.87633   14.46807
    1451      444        1     0.00000    4.86799   32.71818   14.46334
    1452      444        1     0.00000    4.85774   45.86213    1.32517
    1453      444        1     0.00000    8.27859   46.13763    1.32728
    1454      444        1     0.00000    8.28069   33.00288   14.46203
    1455      444        1     0.00000   21.42911   46.13553   14.46939
    1456      444        1     0.00000   21.42148   32.99868    1.31834
    1457      444        1     0.00000   24.97140   34.56281    6.42503
    1458      444        1     0.00000   24.97088   47.71464   19.57239
    1459      444        1     0.00000   11.82640   34.56517   19.57108
    1460      444        1     0.00000   11.82929   47.71490    6.42923
    1461      444        1     0.00000   24.97061   44.29984   19.84868
    1462      444        1     0.00000   24.97298   31.16036    6.72182
    1463      444        1     0.00000   11.82824   44.29511    6.69711
    1464      444        1     0.00000   11.82535   31.16115   19.86077
    1465      444        1     0.00000    1.30546   44.28591    6.43607
    1466      444        1     0.00000    1.31702   31.15721   19.56845
    1467      444        1     0.00000   14.45440   44.28433   19.58501
    1468      444        1     0.00000   14.45782   31.15984    6.42739
    1469      444        1     0.00000    1.31808   34.56833   19.84658
    1470      444        1     0.00000    1.30756   47.71385    6.69973
    1471      444        1     0.00000   14.46465   34.56570    6.71735
    1472      444        1     0.00000   14.45282   47.71806   19.84421
    1473      444        1     0.00000    6.42792   51.24826    8.27464
    1474      444        1     0.00000    6.42976   38.10957   21.41491
    1475      444        1     0.00000   19.57371   51.24221   21.43305
    1476      444        1     0.00000   19.57266   38.10510    8.28884
    1477      444        1     0.00000   19.84868   51.24931   18.01405
    1478      444        1     0.00000   19.85288   38.10300    4.87693
    1479      444        1     0.00000    6.71761   51.25956    4.86642
    1480      444        1     0.00000    6.71656   38.10983   18.00669
    1481      444        1     0.00000    6.42713   27.60966   18.01483
    1482      444        1     0.00000    6.41924   40.75177    4.87325
    1483      444        1     0.00000   19.57502   27.61991    4.87693
    1484      444        1     0.00000   19.58159   40.76018   18.01063
    1485      444        1     0.00000   19.85841   27.62306    8.28384
    1486      444        1     0.00000   19.85814   40.75886   21.43016
    1487      444        1     0.00000    6.71472   27.61439   21.41780
    1488      444        1     0.00000    6.71787   40.75965    8.29410
    1489      444        1     0.00000    6.43107   34.58173    1.31702
    1490      444        1     0.00000    6.44474   47.71937   14.45440
    1491      444        1     0.00000   19.58396   34.57516   14.47359
    1492      444        1     0.00000   19.60736   47.73094    1.32386
    1493      444        1     0.00000   19.82791   44.27855    1.31045
    1494      444        1     0.00000   19.84263   31.14196   14.46807
    1495      444        1     0.00000    6.70236   44.28591   14.45388
    1496      444        1     0.00000    6.70236   31.16036    1.32333
    1497      444        1     0.00000    6.42844   44.28512   24.97587
    1498      444        1     0.00000    6.43370   31.15642   11.82141
    1499      444        1     0.00000   19.58449   44.28828   11.82693
    1500      444        1     0.00000   19.57344   31.15248   24.96378
    1501      444        1     0.00000   19.85315   34.56780   24.96273
    1502      444        1     0.00000   19.83922   47.72411   11.82850
    1503      444        1     0.00000    6.71367   34.57148   11.82298
    1504      444        1     0.00000    6.70788   47.70833   24.97824
    1505      444        1     0.00000    8.27569   51.25956   19.87102
    1506      444        1     0.00000    8.26413   38.12140    6.71498
    1507      444        1     0.00000   21.42306   51.26719    6.72313
    1508      444        1     0.00000   21.42622   38.11719   19.85604
    1509      444        1     0.00000   18.01799   51.26219    6.43265
    1510      444        1     0.00000   18.00590   38.11746   19.58554
    1511      444        1     0.00000    4.87772   51.25457   19.56530
    1512      444        1     0.00000    4.86852   38.11009    6.44132
    1513      444        1     0.00000   18.00195   27.59967   19.86235
    1514      444        1     0.00000   18.00669   40.74546    6.72182
    1515      444        1     0.00000    4.86589   27.60440    6.72182
    1516      444        1     0.00000    4.86563   40.75255   19.85341
    1517      444        1     0.00000    8.27122   27.61360    6.43554
    1518      444        1     0.00000    8.27596   40.75255   19.56871
    1519      444        1     0.00000   21.41649   27.60729   19.58948
    1520      444        1     0.00000   21.41938   40.74572    6.43843
    1521      444        1     0.00000   24.96062   32.71687   18.00274
    1522      444        1     0.00000   24.94748   45.86976    4.85459
    1523      444        1     0.00000   11.81825   32.72528    4.86826
    1524      444        1     0.00000   11.81115   45.87370   17.99512
    1525      444        1     0.00000   24.95169   46.13264    8.28595
    1526      444        1     0.00000   24.96457   33.00078   21.41517
    1527      444        1     0.00000   11.80721   46.12922   21.42858
    1528      444        1     0.00000   11.82035   33.01182    8.27543
    1529      444        1     0.00000    1.32833   32.71818    8.26991
    1530      444        1     0.00000    1.32491   45.86792   21.41307
    1531      444        1     0.00000   14.46728   32.71923   21.41754
    1532      444        1     0.00000   14.47175   45.86871    8.27464
    1533      444        1     0.00000    1.32570   46.14604   17.99643
    1534      444        1     0.00000    1.32281   33.00341    4.86536
    1535      444        1     0.00000   14.47333   46.14841    4.85958
    1536      444        1     0.00000   14.46728   33.01129   18.01168
    1537      444        1     0.00000   18.03113   46.17838    1.30887
    1538      444        1     0.00000   18.01852   33.01340   14.47464
    1539      444        1     0.00000    4.88061   46.15603   14.45493
    1540      444        1     0.00000    4.86799   33.01813    1.31650
    1541      444        1     0.00000    8.26649   32.72344    1.32360
    1542      444        1     0.00000    8.26728   45.84846   14.45309
    1543      444        1     0.00000   21.40650   32.70504   14.46833
    1544      444        1     0.00000   21.40098   45.83322    1.32202
    1545      444        1     0.00000    8.26860   46.13973   24.97166
    1546      444        1     0.00000    8.27753   33.00866   11.82088
    1547      444        1     0.00000   21.40440   46.16287   11.82903
    1548      444        1     0.00000   21.41596   33.00341   24.96299
    1549      444        1     0.00000   18.01089   32.71713   24.96273
    1550      444        1     0.00000   18.01957   45.85083   11.82771
    1551      444        1     0.00000    4.86957   32.71950   11.82219
    1552      444        1     0.00000    4.87010   45.85320   24.97193
    1553      444        1     0.00000    1.32570   44.30352   19.85104
    1554      444        1     0.00000    1.32701   31.15274    6.70867
    1555      444        1     0.00000   14.47201   44.30431    6.71183
    1556      444        1     0.00000   14.46676   31.15589   19.85341
    1557      444        1     0.00000    1.32333   34.56833    6.42792
    1558      444        1     0.00000    1.32412   47.70938   19.55951
    1559      444        1     0.00000   14.46597   34.57279   19.57712
    1560      444        1     0.00000   14.47070   47.71096    6.42450
    1561      444        1     0.00000   24.96089   34.56386   19.85078
    1562      444        1     0.00000   24.95379   47.69677    6.72260
    1563      444        1     0.00000   11.82272   34.57595    6.71262
    1564      444        1     0.00000   11.80984   47.69571   19.86839
    1565      444        1     0.00000   24.95169   44.30536    6.41740
    1566      444        1     0.00000   24.96457   31.15642   19.56924
    1567      444        1     0.00000   11.81378   44.30773   19.55662
    1568      444        1     0.00000   11.81667   31.16194    6.43239
    1569      444        1     0.00000   19.85420   27.60387   18.02456
    1570      444        1     0.00000   19.85315   40.74125    4.87693
    1571      444        1     0.00000    6.70841   27.61334    4.87141
    1572      444        1     0.00000    6.71288   40.75098   18.00485
    1573      444        1     0.00000    6.42818   27.60256    8.28673
    1574      444        1     0.00000    6.42923   40.75124   21.41702
    1575      444        1     0.00000   19.56319   27.59940   21.42858
    1576      444        1     0.00000   19.57055   40.74625    8.28542
    1577      444        1     0.00000   19.85998   51.26719    8.28726
    1578      444        1     0.00000   19.86498   38.11719   21.42201
    1579      444        1     0.00000    6.70788   51.25956   21.43016
    1580      444        1     0.00000    6.71866   38.11667    8.29383
    1581      444        1     0.00000    6.44553   51.25510   18.00563
    1582      444        1     0.00000    6.42240   38.11903    4.87036
    1583      444        1     0.00000   19.58238   51.26482    4.87010
    1584      444        1     0.00000   19.56845   38.12087   18.02114
    1585      444        1     0.00000   19.87181   44.32298   24.95484
    1586      444        1     0.00000   19.86077   31.16930   11.82509
    1587      444        1     0.00000    6.72865   44.31115   11.81273
    1588      444        1     0.00000    6.71971   31.16720   24.96956
    1589      444        1     0.00000    6.42108   34.56465   24.96246
    1590      444        1     0.00000    6.41661   47.69650   11.81299
    1591      444        1     0.00000   19.55793   34.55886   11.83402
    1592      444        1     0.00000   19.55136   47.67652   24.96746
    1593      444        1     0.00000   19.85867   34.56307    1.31781
    1594      444        1     0.00000   19.86340   47.69782   14.46886
    1595      444        1     0.00000    6.71630   34.56543   14.46387
    1596      444        1     0.00000    6.71393   47.69939    1.32806
    1597      444        1     0.00000    6.42371   44.29932    1.33175
    1598      444        1     0.00000    6.43133   31.15484   14.46281
    1599      444        1     0.00000   19.55662   44.31351   14.46833
    1600      444        1     0.00000   19.56792   31.15878    1.31913
    1601      444        1     0.00000   18.00853   27.61938    6.43738
    1602      444        1     0.00000   18.01773   40.75886   19.57371
    1603      444        1     0.00000    4.86116   27.60808   19.57581
    1604      444        1     0.00000    4.86615   40.75860    6.44316
    1605      444        1     0.00000    8.28121   27.61439   19.85735
    1606      444        1     0.00000    8.26255   40.75255    6.71156
    1607      444        1     0.00000   21.42306   27.62017    6.72155
    1608      444        1     0.00000   21.42070   40.75676   19.86577
    1609      444        1     0.00000    8.27990   51.25878    6.43107
    1610      444        1     0.00000    8.27990   38.11141   19.57055
    1611      444        1     0.00000   21.41281   51.25063   19.57686
    1612      444        1     0.00000   21.41912   38.10379    6.43764
    1613      444        1     0.00000   18.01168   51.24537   19.86839
    1614      444        1     0.00000   18.00826   38.10694    6.72628
    1615      444        1     0.00000    4.86615   51.25115    6.70920
    1616      444        1     0.00000    4.86563   38.11036   19.85157
    1617      444        1     0.00000    1.30625   46.15209    8.26492
    1618      444        1     0.00000    1.31702   33.00498   21.41071
    1619      444        1     0.00000   14.44730   46.15314   21.40676
    1620      444        1     0.00000   14.46045   33.00078    8.27990
    1621      444        1     0.00000    1.31650   32.71766   18.00169
    1622      444        1     0.00000    1.30178   45.84820    4.87115
    1623      444        1     0.00000   14.46045   32.72449    4.86458
    1624      444        1     0.00000   14.45256   45.84741   18.02062
    1625      444        1     0.00000   24.97061   46.15340   18.00669
    1626      444        1     0.00000   24.96930   32.99736    4.86379
    1627      444        1     0.00000   11.82982   46.15472    4.86221
    1628      444        1     0.00000   11.82666   33.00341   18.00537
    1629      444        1     0.00000   24.97535   32.72686    8.28253
    1630      444        1     0.00000   24.97403   45.86345   21.41176
    1631      444        1     0.00000   11.82693   32.72554   21.42332
    1632      444        1     0.00000   11.83087   45.85714    8.26308
    1633      444        2     0.00000    7.32486   33.62538   -0.00105
    1634      444        2     0.00000    7.33064   46.76039   13.13343
    1635      444        2     0.00000   20.46382   33.61434   13.15078
    1636      444        2     0.00000   20.47643   46.75382    0.00184
    1637      444        2     0.00000   18.95095   45.25068   -0.01262
    1638      444        2     0.00000   18.95384   32.10515   13.14973
    1639      444        2     0.00000    5.82093   45.25068   13.13449
    1640      444        2     0.00000    5.81646   32.11566   -0.00079
    1641      444        2     0.00000   18.95910   33.61539   -0.00368
    1642      444        2     0.00000   18.95910   46.75671   13.14816
    1643      444        2     0.00000    5.81883   33.61670   13.14316
    1644      444        2     0.00000    5.81646   46.75250    0.00683
    1645      444        2     0.00000    7.32249   45.24305    0.00789
    1646      444        2     0.00000    7.32933   32.10725   13.14158
    1647      444        2     0.00000   20.46960   45.24910   13.14842
    1648      444        2     0.00000   20.46881   32.10436   -0.00289
    1649      444        2     0.00000    0.00578   33.61592    7.32302
    1650      444        2     0.00000    0.00394   46.75724   20.45803
    1651      444        2     0.00000   13.14632   33.60750   20.45856
    1652      444        2     0.00000   13.15052   46.75724    7.31724
    1653      444        2     0.00000    0.00394   45.25094   18.95095
    1654      444        2     0.00000    0.00421   32.10541    5.81646
    1655      444        2     0.00000   13.15052   45.24989    5.80673
    1656      444        2     0.00000   13.14632   32.10147   18.95068
    1657      444        2     0.00000   -0.01498   45.24358    7.32617
    1658      444        2     0.00000   -0.00315   32.11093   20.45961
    1659      444        2     0.00000   13.13107   45.24805   20.46487
    1660      444        2     0.00000   13.13869   32.11120    7.32644
    1661      444        2     0.00000   -0.00499   33.62012   18.94674
    1662      444        2     0.00000   -0.01630   46.75329    5.81620
    1663      444        2     0.00000   13.14158   33.62249    5.81620
    1664      444        2     0.00000   13.13186   46.75881   18.95647
    1665      444        2     0.00000    7.32539   26.28711    7.33064
    1666      444        2     0.00000    7.32539   39.43106   20.46434
    1667      444        2     0.00000   20.46697   26.28133   20.48222
    1668      444        2     0.00000   20.47170   39.42554    7.33906
    1669      444        2     0.00000   18.95752   26.28080   18.97093
    1670      444        2     0.00000   18.96067   39.42475    5.83066
    1671      444        2     0.00000    5.81672   26.28816    5.81988
    1672      444        2     0.00000    5.81488   39.43080   18.95331
    1673      444        2     0.00000    7.33222   26.29053   18.96225
    1674      444        2     0.00000    7.29016   39.43658    5.84590
    1675      444        2     0.00000   20.46855   26.29920    5.83066
    1676      444        2     0.00000   20.46776   39.43842   18.97014
    1677      444        2     0.00000   18.95726   26.29894    7.33958
    1678      444        2     0.00000   18.95910   39.43790   20.48038
    1679      444        2     0.00000    5.81830   26.29000   20.46907
    1680      444        2     0.00000    5.79543   39.43737    7.36981
    1681      444        3     0.00000    8.48863   30.95584   23.36179
    1682      444        3     0.00000    7.80935   31.63985   24.49323
    1683      444        3     0.00000    8.49625   44.10006   10.20417
    1684      444        3     0.00000    7.81828   44.78459   11.33587
    1685      444        3     0.00000   17.79112   47.88972   23.35075
    1686      444        3     0.00000   18.46094   47.20729   24.48560
    1687      444        3     0.00000   17.79086   34.77048   10.22810
    1688      444        3     0.00000   18.46804   34.08647   11.35821
    1689      444        3     0.00000    4.65427   34.77048   23.35233
    1690      444        3     0.00000    5.33250   34.08962   24.48560
    1691      444        3     0.00000   17.79927   30.95427    2.92873
    1692      444        3     0.00000   18.47855   31.63354    1.79520
    1693      444        3     0.00000   17.79112   44.10006   16.07584
    1694      444        3     0.00000   18.46672   44.78591   14.94415
    1695      444        3     0.00000    4.65848   30.94690   16.07032
    1696      444        3     0.00000    5.34065   31.62750   14.93862
    1697      444        3     0.00000    8.48600   47.91443    2.93163
    1698      444        3     0.00000    7.80514   47.22832    1.80256
    1699      444        3     0.00000    8.48915   34.77442   16.06743
    1700      444        3     0.00000    7.80751   34.09304   14.93784
    1701      444        3     0.00000   23.35838   34.76680    4.66006
    1702      444        3     0.00000   24.49323   34.08752    5.33697
    1703      444        3     0.00000   10.22179   34.77521   17.79717
    1704      444        3     0.00000   11.35164   34.09357   18.47961
    1705      444        3     0.00000   23.36889   44.09375   21.62653
    1706      444        3     0.00000   24.49743   44.77329   20.94042
    1707      444        3     0.00000   23.36337   30.95952    8.49047
    1708      444        3     0.00000   24.49796   31.63644    7.81119
    1709      444        3     0.00000   10.22152   44.09112    8.46917
    1710      444        3     0.00000   11.35322   44.76856    7.78779
    1711      444        3     0.00000    2.91270   44.08244    4.66190
    1712      444        3     0.00000    1.77969   44.75962    5.34459
    1713      444        3     0.00000   16.06532   44.08665   17.81189
    1714      444        3     0.00000   14.93074   44.75936   18.49511
    1715      444        3     0.00000   16.06795   30.95374    4.65927
    1716      444        3     0.00000   14.93521   31.63381    5.33828
    1717      444        3     0.00000    2.92611   34.77285   21.61812
    1718      444        3     0.00000    1.79415   34.09409   20.93674
    1719      444        3     0.00000   16.06611   34.77179    8.49257
    1720      444        3     0.00000   14.93784   34.09094    7.80803
    1721      444        3     0.00000    4.65559   49.64023    8.47706
    1722      444        3     0.00000    5.33855   50.77271    7.79883
    1723      444        3     0.00000    4.65874   36.50233   21.62153
    1724      444        3     0.00000    5.33986   37.63376   20.94120
    1725      444        3     0.00000   21.62075   49.64260   17.80769
    1726      444        3     0.00000   20.93910   50.77429   18.48723
    1727      444        3     0.00000   21.62548   36.49681    4.66479
    1728      444        3     0.00000   20.94436   37.62771    5.34801
    1729      444        3     0.00000    8.48968   49.65311    4.65769
    1730      444        3     0.00000    7.80803   50.78402    5.33960
    1731      444        3     0.00000    4.65638   29.21637   17.80348
    1732      444        3     0.00000    5.33566   28.08442   18.48618
    1733      444        3     0.00000    4.64954   42.35796    4.66321
    1734      444        3     0.00000    5.33487   41.23205    5.34959
    1735      444        3     0.00000   21.62811   29.23214    8.48836
    1736      444        3     0.00000   20.94883   28.09835    7.81014
    1737      444        3     0.00000   21.63389   42.36453   21.63547
    1738      444        3     0.00000   20.94909   41.23310   20.95619
    1739      444        3     0.00000    8.48994   42.36111    8.47890
    1740      444        3     0.00000    7.80383   41.22994    7.80698
    1741      444        3     0.00000    4.65769   34.78573    2.92321
    1742      444        3     0.00000    5.34065   34.10802    1.79205
    1743      444        3     0.00000    4.67267   47.92126   16.06270
    1744      444        3     0.00000    5.35485   47.24488   14.93100
    1745      444        3     0.00000   21.60865   44.06588    2.92216
    1746      444        3     0.00000   20.92149   44.74490    1.79152
    1747      444        3     0.00000   21.61549   30.93928   16.07821
    1748      444        3     0.00000   20.93332   31.61541   14.94441
    1749      444        3     0.00000    8.46865   30.96031    2.93899
    1750      444        3     0.00000    7.79121   31.63512    1.80177
    1751      444        3     0.00000    4.65979   44.08796   23.36022
    1752      444        3     0.00000    5.34118   44.76251   24.49612
    1753      444        3     0.00000    4.66190   30.94822   10.21574
    1754      444        3     0.00000    5.34354   31.62986   11.34586
    1755      444        3     0.00000   21.62364   34.77153   23.35338
    1756      444        3     0.00000   20.94252   34.09304   24.48613
    1757      444        3     0.00000   21.61523   47.92731   10.22179
    1758      444        3     0.00000   20.93016   47.25145   11.35296
    1759      444        3     0.00000    8.48679   34.78205   10.21600
    1760      444        3     0.00000    7.80435   34.09961   11.34665
    1761      444        3     0.00000    8.47811   49.64917   21.63941
    1762      444        3     0.00000    7.79936   50.78323   20.95961
    1763      444        3     0.00000    8.48731   36.51442    8.48521
    1764      444        3     0.00000    7.80488   37.64611    7.81040
    1765      444        3     0.00000   17.81321   49.65285    4.66505
    1766      444        3     0.00000   18.49301   50.78638    5.34354
    1767      444        3     0.00000   17.80111   36.51468   17.80979
    1768      444        3     0.00000   18.47908   37.64427   18.49406
    1769      444        3     0.00000    4.65638   36.50916    4.65953
    1770      444        3     0.00000    5.33750   37.63770    5.34643
    1771      444        3     0.00000   17.79849   29.21295   21.62784
    1772      444        3     0.00000   18.47540   28.07705   20.95172
    1773      444        3     0.00000   17.80164   42.35428    8.49073
    1774      444        3     0.00000   18.48013   41.22179    7.81145
    1775      444        3     0.00000    4.65664   29.20901    8.49309
    1776      444        3     0.00000    5.33802   28.07811    7.81329
    1777      444        3     0.00000    8.46996   29.23136    4.67241
    1778      444        3     0.00000    7.79568   28.09256    5.34775
    1779      444        3     0.00000    8.48337   42.35690   17.79481
    1780      444        3     0.00000    7.80304   41.22679   18.47776
    1781      444        3     0.00000   23.35102   30.94585   17.80585
    1782      444        3     0.00000   24.48586   31.62776   18.48013
    1783      444        3     0.00000   10.20339   30.96005    4.66715
    1784      444        3     0.00000   11.33981   31.63696    5.34328
    1785      444        3     0.00000   23.34839   47.91312    8.49204
    1786      444        3     0.00000   24.47745   47.22464    7.81276
    1787      444        3     0.00000   10.20286   47.90891   21.63626
    1788      444        3     0.00000   11.33271   47.22174   20.95724
    1789      444        3     0.00000   10.21732   34.78415    8.48468
    1790      444        3     0.00000   11.34665   34.10303    7.80277
    1791      444        3     0.00000    2.93215   30.94612    8.48284
    1792      444        3     0.00000    1.80335   31.62724    7.79831
    1793      444        3     0.00000   16.07347   30.94848   21.62390
    1794      444        3     0.00000   14.94309   31.62960   20.94357
    1795      444        3     0.00000    2.93715   47.91811   17.79112
    1796      444        3     0.00000    1.80204   47.23646   18.46988
    1797      444        3     0.00000    2.92742   34.77705    4.65638
    1798      444        3     0.00000    1.79783   34.09435    5.33776
    1799      444        3     0.00000   16.08451   47.91837    4.65927
    1800      444        3     0.00000   14.94940   47.23778    5.33566
    1801      444        3     0.00000   17.81899   47.93152    2.92584
    1802      444        3     0.00000   18.50905   47.26223    1.79152
    1803      444        3     0.00000   17.80874   34.78441   16.07873
    1804      444        3     0.00000   18.49275   34.10329   14.94940
    1805      444        3     0.00000    8.47680   44.08271   16.06007
    1806      444        3     0.00000    7.79305   44.75936   14.92916
    1807      444        3     0.00000    8.47469   47.91548   23.36889
    1808      444        3     0.00000    7.79594   47.23305   24.49980
    1809      444        3     0.00000   17.80374   30.94822   23.35443
    1810      444        3     0.00000   18.48434   31.62724   24.48665
    1811      444        3     0.00000   17.81084   44.08691   10.21784
    1812      444        3     0.00000   18.49380   44.76225   11.35085
    1813      444        3     0.00000    2.93215   44.09637   21.62364
    1814      444        3     0.00000    1.80098   44.77749   20.94120
    1815      444        3     0.00000   16.07926   44.09532    8.48468
    1816      444        3     0.00000   14.94809   44.77802    7.80225
    1817      444        3     0.00000   16.07268   34.78283   17.80585
    1818      444        3     0.00000   14.94152   34.10172   18.48591
    1819      444        3     0.00000   23.35496   34.76943   21.62232
    1820      444        3     0.00000   24.48665   34.08962   20.94147
    1821      444        3     0.00000   23.34287   44.08849    4.65348
    1822      444        3     0.00000   24.47351   44.77802    5.32856
    1823      444        3     0.00000   10.20969   44.09375   17.78850
    1824      444        3     0.00000   11.33797   44.78117   18.46699
    1825      444        3     0.00000   21.61812   29.21690   17.81794
    1826      444        3     0.00000   20.94173   28.08336   18.49958
    1827      444        3     0.00000   21.62022   42.34744    4.66242
    1828      444        3     0.00000   20.94357   41.21838    5.34801
    1829      444        3     0.00000    4.65953   42.36085   21.62495
    1830      444        3     0.00000    5.33934   41.22810   20.94383
    1831      444        3     0.00000   21.63021   49.65942    8.49415
    1832      444        3     0.00000   20.95067   50.79190    7.81355
    1833      444        3     0.00000   21.62995   36.50548   21.62469
    1834      444        3     0.00000   20.95356   37.64059   20.94620
    1835      444        3     0.00000    4.67346   49.64733   17.79559
    1836      444        3     0.00000    5.35432   50.77850   18.47671
    1837      444        3     0.00000   21.64151   44.10531   23.35785
    1838      444        3     0.00000   20.96591   44.79248   24.48692
    1839      444        3     0.00000   21.62364   30.97030   10.21153
    1840      444        3     0.00000   20.94804   31.64643   11.34770
    1841      444        3     0.00000    4.64691   47.90707   10.20759
    1842      444        3     0.00000    5.32619   47.22279   11.33850
    1843      444        3     0.00000   21.62653   34.76811    2.92952
    1844      444        3     0.00000   20.94778   34.08857    1.79520
    1845      444        3     0.00000   21.62863   47.91049   16.07663
    1846      444        3     0.00000   20.95330   47.22569   14.94493
    1847      444        3     0.00000    4.64639   44.08901    2.93189
    1848      444        3     0.00000    5.33119   44.77276    1.80388
    1849      444        3     0.00000   17.80322   29.22636    4.66452
    1850      444        3     0.00000   18.48434   28.09598    5.34827
    1851      444        3     0.00000   17.80506   42.36505   17.80453
    1852      444        3     0.00000   18.49065   41.23494   18.48355
    1853      444        3     0.00000    8.48521   29.22400   21.62863
    1854      444        3     0.00000    7.80514   28.09151   20.94620
    1855      444        3     0.00000    8.48968   36.50574   17.79743
    1856      444        3     0.00000    7.80751   37.63560   18.47987
    1857      444        3     0.00000   17.80322   49.62893   21.62916
    1858      444        3     0.00000   18.48513   50.76509   20.95645
    1859      444        3     0.00000   17.79717   36.50285    8.49835
    1860      444        3     0.00000   18.48092   37.63165    7.81671
    1861      444        3     0.00000    2.91638   47.91706    8.47443
    1862      444        3     0.00000    1.78311   47.24093    7.79094
    1863      444        3     0.00000   16.06296   47.90865   21.61785
    1864      444        3     0.00000   14.92758   47.24041   20.93358
    1865      444        3     0.00000    2.92505   30.94769   17.79927
    1866      444        3     0.00000    1.79283   31.62881   18.47776
    1867      444        3     0.00000   23.35943   47.91969   17.80558
    1868      444        3     0.00000   24.49375   47.24199   18.48302
    1869      444        3     0.00000   10.22047   47.92284    4.65927
    1870      444        3     0.00000   11.35322   47.24330    5.33855
    1871      444        3     0.00000   10.21995   30.95269   21.63231
    1872      444        3     0.00000   11.35006   31.63538   20.95093
    1873      444        3     0.00000    9.64372   31.51367   22.78556
    1874      444        4     0.00000   10.06669   32.41640   23.20827
    1875      444        3     0.00000    9.65029   44.65473    9.62453
    1876      444        4     0.00000   10.07379   45.55930   10.04277
    1877      444        3     0.00000   16.63682   47.33610   22.76769
    1878      444        4     0.00000   16.20360   46.43547   23.18777
    1879      444        3     0.00000   16.63998   34.21055    9.64713
    1880      444        4     0.00000   16.21648   33.30730   10.06800
    1881      444        3     0.00000    3.49103   47.35266    9.62899
    1882      444        4     0.00000    3.06438   46.45151   10.05249
    1883      444        3     0.00000   16.64497   31.51420    3.50549
    1884      444        4     0.00000   16.22174   32.41666    3.08226
    1885      444        3     0.00000   16.63761   44.65368   16.65838
    1886      444        4     0.00000   16.21070   45.55614   16.23830
    1887      444        3     0.00000    3.49208   44.64737    3.51101
    1888      444        4     0.00000    3.06780   45.54957    3.08988
    1889      444        3     0.00000    9.63846   47.35555    3.51127
    1890      444        4     0.00000   10.05801   46.44862    3.09409
    1891      444        3     0.00000    9.64372   34.21449   16.64392
    1892      444        4     0.00000   10.06695   33.31308   16.21937
    1893      444        3     0.00000   22.77925   35.91795    5.22446
    1894      444        4     0.00000   23.20196   36.33908    6.12824
    1895      444        3     0.00000   22.77663   49.06952   18.36841
    1896      444        4     0.00000   23.19776   49.49381   19.27140
    1897      444        3     0.00000    9.64372   35.92820   18.35763
    1898      444        4     0.00000   10.06459   36.35012   19.26141
    1899      444        3     0.00000   22.78556   42.94128   21.07001
    1900      444        4     0.00000   23.19960   42.52094   20.16387
    1901      444        3     0.00000   22.78688   29.80391    7.93264
    1902      444        4     0.00000   23.21406   29.37515    7.03438
    1903      444        3     0.00000    9.64109   29.79970   21.07080
    1904      444        4     0.00000   10.06353   29.37699   20.16781
    1905      444        3     0.00000    3.49314   42.93077    5.22130
    1906      444        4     0.00000    3.07174   42.50622    6.12298
    1907      444        3     0.00000    3.50313   29.79549   18.36262
    1908      444        4     0.00000    3.08147   29.37620   19.26772
    1909      444        3     0.00000    3.50575   35.92557   21.05897
    1910      444        4     0.00000    3.08410   36.35012   20.15625
    1911      444        3     0.00000    3.50129   49.06663    7.91424
    1912      444        4     0.00000    3.08147   49.49065    7.01098
    1913      444        3     0.00000    5.21315   49.05927    9.63057
    1914      444        4     0.00000    6.11798   49.47803   10.05328
    1915      444        3     0.00000   18.36052   49.04034   22.77820
    1916      444        4     0.00000   19.26141   49.45700   23.20827
    1917      444        3     0.00000   18.35500   35.92399    9.65239
    1918      444        4     0.00000   19.25878   36.34460   10.07589
    1919      444        3     0.00000   21.06160   49.06111   16.65522
    1920      444        4     0.00000   20.15651   49.48014   16.23278
    1921      444        3     0.00000   21.06502   35.92031    3.51022
    1922      444        4     0.00000   20.16124   36.34302    3.08935
    1923      444        3     0.00000    7.92554   49.06952    3.50786
    1924      444        4     0.00000    7.02097   49.48986    3.08699
    1925      444        3     0.00000    5.21894   29.79444   16.65049
    1926      444        4     0.00000    6.12271   29.37200   16.22910
    1927      444        3     0.00000   18.36236   29.80286    3.50917
    1928      444        4     0.00000   19.26561   29.38067    3.08646
    1929      444        3     0.00000   21.06055   29.81836    9.63346
    1930      444        4     0.00000   20.15336   29.40065   10.05223
    1931      444        3     0.00000    7.92422   29.80443   22.78083
    1932      444        4     0.00000    7.01861   29.38488   23.19828
    1933      444        3     0.00000    5.21447   35.93977    3.50076
    1934      444        4     0.00000    6.11746   36.36405    3.08068
    1935      444        3     0.00000   18.36683   35.93766   16.65759
    1936      444        4     0.00000   19.27140   36.35958   16.23698
    1937      444        3     0.00000   21.05608   42.91263    3.50497
    1938      444        4     0.00000   20.15336   42.48545    3.08725
    1939      444        3     0.00000    7.91976   42.93024   16.64129
    1940      444        4     0.00000    7.01703   42.50543   16.22095
    1941      444        3     0.00000    7.90530   29.81127    3.52232
    1942      444        4     0.00000    7.00310   29.38698    3.09987
    1943      444        3     0.00000    5.21841   42.93498   22.78083
    1944      444        4     0.00000    6.12061   42.51121   23.20328
    1945      444        3     0.00000    5.21762   29.78892    9.64529
    1946      444        4     0.00000    6.11746   29.36385   10.07168
    1947      444        3     0.00000   18.36552   42.93077    9.64266
    1948      444        4     0.00000   19.26640   42.50464   10.06643
    1949      444        3     0.00000   21.06581   35.92636   22.77610
    1950      444        4     0.00000   20.16229   36.34881   23.19723
    1951      444        3     0.00000    7.92317   35.93162    9.63452
    1952      444        4     0.00000    7.01519   36.34802   10.05197
    1953      444        3     0.00000    9.62873   49.06584   21.07606
    1954      444        4     0.00000   10.05144   49.48697   20.17202
    1955      444        3     0.00000    9.63741   35.93530    7.92054
    1956      444        4     0.00000   10.05565   36.35301    7.01177
    1957      444        3     0.00000   16.65917   49.07241    5.22393
    1958      444        4     0.00000   16.23199   49.49670    6.12534
    1959      444        3     0.00000   16.64760   35.93635   18.36736
    1960      444        4     0.00000   16.22226   36.36011   19.26877
    1961      444        3     0.00000    3.50234   35.93109    5.21710
    1962      444        4     0.00000    3.08015   36.35301    6.12061
    1963      444        3     0.00000   16.64681   29.79181   21.06607
    1964      444        4     0.00000   16.22069   29.36674   20.16624
    1965      444        3     0.00000   16.65076   42.93629    7.92869
    1966      444        4     0.00000   16.22542   42.51279    7.02754
    1967      444        3     0.00000    3.50497   29.78735    7.92922
    1968      444        4     0.00000    3.07963   29.36096    7.02912
    1969      444        3     0.00000    9.62584   29.80732    5.22971
    1970      444        4     0.00000   10.05144   29.38356    6.13086
    1971      444        3     0.00000    9.63557   42.93971   18.35342
    1972      444        4     0.00000   10.05933   42.52120   19.25799
    1973      444        3     0.00000   22.77032   31.50237   16.65207
    1974      444        4     0.00000   23.19303   32.40352   16.22515
    1975      444        3     0.00000   22.76112   44.63633    3.49708
    1976      444        4     0.00000   23.17489   45.54247    3.07358
    1977      444        3     0.00000    9.62374   31.52077    3.51443
    1978      444        4     0.00000   10.04986   32.42008    3.08751
    1979      444        3     0.00000   22.76085   47.35371    9.64030
    1980      444        4     0.00000   23.16884   46.44099   10.05433
    1981      444        3     0.00000   22.77531   34.20818   22.77452
    1982      444        4     0.00000   23.19644   33.30414   23.19671
    1983      444        3     0.00000    9.64345   34.22474    9.64135
    1984      444        4     0.00000   10.06616   33.32149   10.06511
    1985      444        3     0.00000    3.51311   31.51209    9.63215
    1986      444        4     0.00000    3.09829   32.42271   10.04461
    1987      444        3     0.00000    3.50838   44.65368   22.78031
    1988      444        4     0.00000    3.08594   45.55640   23.20433
    1989      444        3     0.00000    3.51732   47.35975   16.63761
    1990      444        4     0.00000    3.09487   46.45755   16.21280
    1991      444        3     0.00000    3.50970   34.21765    3.50497
    1992      444        4     0.00000    3.09172   33.31334    3.08278
    1993      444        3     0.00000   16.66732   47.36028    3.50497
    1994      444        4     0.00000   16.25013   46.45151    3.08594
    1995      444        3     0.00000   16.65365   34.22317   16.65338
    1996      444        4     0.00000   16.23120   33.32175   16.22857
    1997      444        3     0.00000    9.62952   44.64895   16.63472
    1998      444        4     0.00000   10.04934   45.55220   16.20991
    1999      444        3     0.00000    9.62505   47.35187   22.79003
    2000      444        4     0.00000   10.04645   46.44940   23.21353
    2001      444        3     0.00000   16.65286   31.51157   22.77479
    2002      444        4     0.00000   16.23304   32.41771   23.19434
    2003      444        3     0.00000   16.66259   44.65631    9.63557
    2004      444        4     0.00000   16.24540   45.56298   10.05591
    2005      444        3     0.00000    3.50996   42.94365   21.06213
    2006      444        4     0.00000    3.08673   42.52199   20.15914
    2007      444        3     0.00000    3.51785   49.06952   18.35447
    2008      444        4     0.00000    3.09619   49.49091   19.25799
    2009      444        3     0.00000   22.78031   35.92426   21.06265
    2010      444        4     0.00000   23.20249   36.34565   20.15888
    2011      444        3     0.00000   22.78083   49.07399    7.93343
    2012      444        4     0.00000   23.20617   49.49433    7.03070
    2013      444        3     0.00000   22.76926   42.93655    5.22183
    2014      444        4     0.00000   23.19723   42.51779    6.12429
    2015      444        3     0.00000   22.77242   29.79681   18.37445
    2016      444        4     0.00000   23.19671   29.37804   19.27876
    2017      444        3     0.00000   21.05503   29.79024   16.66337
    2018      444        4     0.00000   20.15125   29.36621   16.24382
    2019      444        3     0.00000   18.36184   29.79313   22.77820
    2020      444        4     0.00000   19.26325   29.36832   23.20091
    2021      444        3     0.00000   21.06555   49.08608    9.64740
    2022      444        4     0.00000   20.16755   49.51668   10.07247
    2023      444        3     0.00000    7.91529   49.07110   22.79240
    2024      444        4     0.00000    7.01335   49.49670   23.21511
    2025      444        3     0.00000    5.23497   49.07136   16.64287
    2026      444        4     0.00000    6.14006   49.49197   16.22226
    2027      444        3     0.00000   18.37524   49.08030    3.51127
    2028      444        4     0.00000   19.27849   49.50301    3.09277
    2029      444        3     0.00000   21.07764   42.94812   22.78740
    2030      444        4     0.00000   20.17728   42.52515   23.21511
    2031      444        3     0.00000    7.93159   42.94681    9.62952
    2032      444        4     0.00000    7.02781   42.52962   10.05486
    2033      444        3     0.00000    5.21736   35.92347   22.77531
    2034      444        4     0.00000    6.12193   36.34355   23.19776
    2035      444        3     0.00000    7.92817   35.92767   16.64445
    2036      444        4     0.00000    7.02439   36.34907   16.22121
    2037      444        3     0.00000    5.20474   42.93261    3.50523
    2038      444        4     0.00000    6.10536   42.51043    3.07910
    2039      444        3     0.00000   18.35921   42.94707   16.64997
    2040      444        4     0.00000   19.26220   42.52804   16.22410
    2041      444        3     0.00000   16.64865   29.80338    5.22341
    2042      444        4     0.00000   16.22699   29.38225    6.12745
    2043      444        3     0.00000   16.65023   42.93629   18.36920
    2044      444        4     0.00000   16.22989   42.50964   19.27140
    2045      444        3     0.00000    9.63898   42.93839    7.91003
    2046      444        4     0.00000   10.05854   42.51437    7.00546
    2047      444        3     0.00000    9.64608   49.07977    5.21605
    2048      444        4     0.00000   10.07037   49.50485    6.11772
    2049      444        3     0.00000   16.64734   49.06111   21.06423
    2050      444        4     0.00000   16.23357   49.48487   20.15756
    2051      444        3     0.00000   16.64497   35.92583    7.93500
    2052      444        4     0.00000   16.22384   36.34986    7.03201
    2053      444        3     0.00000    3.50207   34.21081   22.77216
    2054      444        4     0.00000    3.07936   33.30703   23.19250
    2055      444        3     0.00000    3.50391   31.50763   16.64576
    2056      444        4     0.00000    3.08068   32.40983   16.22121
    2057      444        3     0.00000   22.78399   47.35607   16.65338
    2058      444        4     0.00000   23.20932   46.45414   16.23199
    2059      444        3     0.00000   22.78004   34.20713    3.50654
    2060      444        4     0.00000   23.20380   33.30572    3.08199
    2061      444        3     0.00000   22.78004   31.52708    9.63741
    2062      444        4     0.00000   23.20223   32.43112   10.05854
    2063      444        3     0.00000   22.79608   44.65867   22.77978
    2064      444        4     0.00000   23.22194   45.55877   23.20512
    2065       65        5     0.00000   11.06983   35.43556   25.78212
    2066       65        6     0.00000   11.33087   36.38981   25.82865
    2067       65        6     0.00000   11.73755   35.02179   25.17881
    2068       66        5     0.00000   13.03512   28.40066   26.13937
    2069       66        6     0.00000   12.04722   28.38121   26.20641
    2070       66        6     0.00000   13.26593   27.60308   25.59916
    2071       67        5     0.00000   12.67760   36.94948    4.55674
    2072       67        6     0.00000   13.03591   37.76283    4.99391
    2073       67        6     0.00000   11.69338   37.05306    4.60170
    2074       68        5     0.00000   22.98956   43.42998   11.21784
    2075       68        6     0.00000   23.48219   44.22282   11.54985
    2076       68        6     0.00000   22.56843   43.73097   10.37294
    2077       69        5     0.00000   11.44233   47.70649   11.71363
    2078       69        6     0.00000   11.54801   46.73463   11.87372
    2079       69        6     0.00000   10.74728   47.77274   11.01095
    2080       70        5     0.00000   22.55160   52.07764   11.49728
    2081       70        6     0.00000   22.69802   51.88916   10.53593
    2082       70        6     0.00000   22.21328   51.22434   11.86951
    2083       71        5     0.00000    7.78174   26.72323   11.74990
    2084       71        6     0.00000    8.19368   26.81287   12.64632
    2085       71        6     0.00000    6.89610   26.31393   11.92051
    2086       72        5     0.00000    5.44107   27.41118   25.19222
    2087       72        6     0.00000    5.78833   28.32732   25.04501
    2088       72        6     0.00000    6.20447   26.91329   25.58023
    2089       73        5     0.00000   14.21702   43.56773   11.98176
    2090       73        6     0.00000   13.72596   44.06641   12.68260
    2091       73        6     0.00000   15.15971   43.85479   12.08428
    2092       74        5     0.00000   14.03905   35.27310    1.81176
    2093       74        6     0.00000   14.69835   34.54256    1.92480
    2094       74        6     0.00000   14.42601   35.85433    1.10909
    2095       75        5     0.00000   20.95067   41.50781   -0.02865
    2096       75        6     0.00000   21.12995   41.10665    0.85883
    2097       75        6     0.00000   21.76796   42.02594   -0.23948
    2098       76        5     0.00000   20.70198   32.68953   19.91019
    2099       76        6     0.00000   21.67148   32.56650   20.07081
    2100       76        6     0.00000   20.27428   32.47318   20.77717
    2101       77        5     0.00000   26.09337   29.95822   22.31685
    2102       77        6     0.00000   26.66618   30.21347   23.08367
    2103       77        6     0.00000   25.41251   29.35097   22.70223
    2104       78        5     0.00000   14.16182   38.86929   16.90286
    2105       78        6     0.00000   13.65972   39.69420   17.12368
    2106       78        6     0.00000   13.76540   38.55515   16.05113
    2107       79        5     0.00000   23.19565   28.87016   12.09953
    2108       79        6     0.00000   22.25297   28.62805   12.28328
    2109       79        6     0.00000   23.68461   28.58730   12.91235
    2110       80        5     0.00000   10.05512   27.45298    2.35487
    2111       80        6     0.00000    9.91396   26.81681    3.10145
    2112       80        6     0.00000    9.15240   27.59283    1.97212
    2113       81        5     0.00000   25.53817   46.54483   11.57693
    2114       81        6     0.00000   26.32628   47.14235   11.52067
    2115       81        6     0.00000   24.89727   47.02905   12.15684
    2116       82        5     0.00000   14.68784   48.88077   14.85976
    2117       82        6     0.00000   14.27959   48.06322   15.24199
    2118       82        6     0.00000   14.08900   49.61710   15.14367
    2119       83        5     0.00000    7.77491   34.77285    5.18240
    2120       83        6     0.00000    8.51360   34.33541    5.67582
    2121       83        6     0.00000    7.28806   35.29440    5.86956
    2122       84        5     0.00000   17.11789   30.39328   17.58634
    2123       84        6     0.00000   16.95018   30.67141   16.65076
    2124       84        6     0.00000   16.91022   29.42484   17.60106
    2125       85        5     0.00000   22.12758   50.35368   24.10679
    2126       85        6     0.00000   21.92910   50.09922   23.17042
    2127       85        6     0.00000   21.46223   49.85868   24.64832
    2128       86        5     0.00000   25.78028   52.30582   12.02146
    2129       86        6     0.00000   26.29710   51.65546   11.48203
    2130       86        6     0.00000   25.25505   51.74931   12.65026
    2131       87        5     0.00000    5.85274   39.68185   14.86029
    2132       87        6     0.00000    6.03412   38.73285   15.07927
    2133       87        6     0.00000    6.55200   39.92580   14.20256
    2134       88        5     0.00000   10.46101   36.95868   13.24805
    2135       88        6     0.00000    9.87400   36.41768   13.83453
    2136       88        6     0.00000   11.14186   37.34038   13.85793
    2137       89        5     0.00000   25.63885   26.65278    5.16768
    2138       89        6     0.00000   25.06525   26.30052    4.44081
    2139       89        6     0.00000   26.30893   27.21823    4.70659
    2140       90        5     0.00000   16.73251   40.61323   11.57824
    2141       90        6     0.00000   16.52457   39.64504   11.54749
    2142       90        6     0.00000   15.99540   41.04461   11.07667
    2143       91        5     0.00000   13.82560   33.91533   14.35293
    2144       91        6     0.00000   13.37660   34.79808   14.35083
    2145       91        6     0.00000   13.77723   33.60671   13.41288
    2146       92        5     0.00000    1.77180   33.01497   12.87897
    2147       92        6     0.00000    1.33411   32.13091   12.96808
    2148       92        6     0.00000    1.64930   33.26077   11.92708
    2149       93        5     0.00000   18.83791   46.62948   19.27613
    2150       93        6     0.00000   19.62655   46.91470   19.80320
    2151       93        6     0.00000   18.64154   47.39814   18.68307
    2152       94        5     0.00000   10.98545   48.14235    0.41693
    2153       94        6     0.00000   10.24992   47.68310   -0.06151
    2154       94        6     0.00000   10.62320   49.03876    0.63380
    2155       95        5     0.00000   16.73724   30.58597    9.03147
    2156       95        6     0.00000   15.83136   30.18771    9.07800
    2157       95        6     0.00000   17.15627   30.35858    9.90002
    2158       96        5     0.00000   19.63102   39.54252   13.21230
    2159       96        6     0.00000   20.46014   39.65372   12.68207
    2160       96        6     0.00000   19.45988   40.43710   13.60136
    2161      444        1     0.00000    8.28227   32.73133   51.25588
    2162      444        1     0.00000    8.29147   45.87528   38.09932
    2163      444        1     0.00000   21.42332   32.73396   38.11614
    2164      444        1     0.00000   21.44672   45.87712   51.25930
    2165      444        1     0.00000   17.97882   46.11975   51.24484
    2166      444        1     0.00000   17.99380   32.99552   38.12061
    2167      444        1     0.00000    4.85406   46.13185   38.10300
    2168      444        1     0.00000    4.85906   32.99973   51.25063
    2169      444        1     0.00000   18.00511   32.72318   27.60545
    2170      444        1     0.00000   17.99223   45.87633   40.75597
    2171      444        1     0.00000    4.86799   32.71818   40.75124
    2172      444        1     0.00000    4.85774   45.86213   27.61307
    2173      444        1     0.00000    8.27859   46.13763   27.61518
    2174      444        1     0.00000    8.28069   33.00288   40.74993
    2175      444        1     0.00000   21.42911   46.13553   40.75729
    2176      444        1     0.00000   21.42148   32.99868   27.60624
    2177      444        1     0.00000   24.97140   34.56281   32.71293
    2178      444        1     0.00000   24.97088   47.71464   45.86029
    2179      444        1     0.00000   11.82640   34.56517   45.85898
    2180      444        1     0.00000   11.82929   47.71490   32.71713
    2181      444        1     0.00000   24.97061   44.29984   46.13658
    2182      444        1     0.00000   24.97298   31.16036   33.00972
    2183      444        1     0.00000   11.82824   44.29511   32.98501
    2184      444        1     0.00000   11.82535   31.16115   46.14867
    2185      444        1     0.00000    1.30546   44.28591   32.72397
    2186      444        1     0.00000    1.31702   31.15721   45.85635
    2187      444        1     0.00000   14.45440   44.28433   45.87291
    2188      444        1     0.00000   14.45782   31.15984   32.71529
    2189      444        1     0.00000    1.31808   34.56833   46.13448
    2190      444        1     0.00000    1.30756   47.71385   32.98763
    2191      444        1     0.00000   14.46465   34.56570   33.00525
    2192      444        1     0.00000   14.45282   47.71806   46.13211
    2193      444        1     0.00000    6.42792   51.24826   34.56254
    2194      444        1     0.00000    6.42976   38.10957   47.70281
    2195      444        1     0.00000   19.57371   51.24221   47.72095
    2196      444        1     0.00000   19.57266   38.10510   34.57674
    2197      444        1     0.00000   19.84868   51.24931   44.30195
    2198      444        1     0.00000   19.85288   38.10300   31.16483
    2199      444        1     0.00000    6.71761   51.25956   31.15432
    2200      444        1     0.00000    6.71656   38.10983   44.29459
    2201      444        1     0.00000    6.42713   27.60966   44.30273
    2202      444        1     0.00000    6.41924   40.75177   31.16115
    2203      444        1     0.00000   19.57502   27.61991   31.16483
    2204      444        1     0.00000   19.58159   40.76018   44.29853
    2205      444        1     0.00000   19.85841   27.62306   34.57174
    2206      444        1     0.00000   19.85814   40.75886   47.71806
    2207      444        1     0.00000    6.71472   27.61439   47.70570
    2208      444        1     0.00000    6.71787   40.75965   34.58200
    2209      444        1     0.00000    6.43107   34.58173   27.60492
    2210      444        1     0.00000    6.44474   47.71937   40.74230
    2211      444        1     0.00000   19.58396   34.57516   40.76149
    2212      444        1     0.00000   19.60736   47.73094   27.61176
    2213      444        1     0.00000   19.82791   44.27855   27.59835
    2214      444        1     0.00000   19.84263   31.14196   40.75597
    2215      444        1     0.00000    6.70236   44.28591   40.74178
    2216      444        1     0.00000    6.70236   31.16036   27.61123
    2217      444        1     0.00000    6.42844   44.28512   51.26377
    2218      444        1     0.00000    6.43370   31.15642   38.10931
    2219      444        1     0.00000   19.58449   44.28828   38.11483
    2220      444        1     0.00000   19.57344   31.15248   51.25168
    2221      444        1     0.00000   19.85315   34.56780   51.25063
    2222      444        1     0.00000   19.83922   47.72411   38.11640
    2223      444        1     0.00000    6.71367   34.57148   38.11088
    2224      444        1     0.00000    6.70788   47.70833   51.26614
    2225      444        1     0.00000    8.27569   51.25956   46.15892
    2226      444        1     0.00000    8.26413   38.12140   33.00288
    2227      444        1     0.00000   21.42306   51.26719   33.01103
    2228      444        1     0.00000   21.42622   38.11719   46.14394
    2229      444        1     0.00000   18.01799   51.26219   32.72055
    2230      444        1     0.00000   18.00590   38.11746   45.87344
    2231      444        1     0.00000    4.87772   51.25457   45.85320
    2232      444        1     0.00000    4.86852   38.11009   32.72922
    2233      444        1     0.00000   18.00195   27.59967   46.15025
    2234      444        1     0.00000   18.00669   40.74546   33.00972
    2235      444        1     0.00000    4.86589   27.60440   33.00972
    2236      444        1     0.00000    4.86563   40.75255   46.14131
    2237      444        1     0.00000    8.27122   27.61360   32.72344
    2238      444        1     0.00000    8.27596   40.75255   45.85661
    2239      444        1     0.00000   21.41649   27.60729   45.87738
    2240      444        1     0.00000   21.41938   40.74572   32.72633
    2241      444        1     0.00000   24.96062   32.71687   44.29064
    2242      444        1     0.00000   24.94748   45.86976   31.14249
    2243      444        1     0.00000   11.81825   32.72528   31.15616
    2244      444        1     0.00000   11.81115   45.87370   44.28302
    2245      444        1     0.00000   24.95169   46.13264   34.57385
    2246      444        1     0.00000   24.96457   33.00078   47.70307
    2247      444        1     0.00000   11.80721   46.12922   47.71648
    2248      444        1     0.00000   11.82035   33.01182   34.56333
    2249      444        1     0.00000    1.32833   32.71818   34.55781
    2250      444        1     0.00000    1.32491   45.86792   47.70097
    2251      444        1     0.00000   14.46728   32.71923   47.70544
    2252      444        1     0.00000   14.47175   45.86871   34.56254
    2253      444        1     0.00000    1.32570   46.14604   44.28433
    2254      444        1     0.00000    1.32281   33.00341   31.15326
    2255      444        1     0.00000   14.47333   46.14841   31.14748
    2256      444        1     0.00000   14.46728   33.01129   44.29958
    2257      444        1     0.00000   18.03113   46.17838   27.59677
    2258      444        1     0.00000   18.01852   33.01340   40.76254
    2259      444        1     0.00000    4.88061   46.15603   40.74283
    2260      444        1     0.00000    4.86799   33.01813   27.60440
    2261      444        1     0.00000    8.26649   32.72344   27.61150
    2262      444        1     0.00000    8.26728   45.84846   40.74099
    2263      444        1     0.00000   21.40650   32.70504   40.75623
    2264      444        1     0.00000   21.40098   45.83322   27.60992
    2265      444        1     0.00000    8.26860   46.13973   51.25956
    2266      444        1     0.00000    8.27753   33.00866   38.10878
    2267      444        1     0.00000   21.40440   46.16287   38.11693
    2268      444        1     0.00000   21.41596   33.00341   51.25089
    2269      444        1     0.00000   18.01089   32.71713   51.25063
    2270      444        1     0.00000   18.01957   45.85083   38.11561
    2271      444        1     0.00000    4.86957   32.71950   38.11009
    2272      444        1     0.00000    4.87010   45.85320   51.25983
    2273      444        1     0.00000    1.32570   44.30352   46.13894
    2274      444        1     0.00000    1.32701   31.15274   32.99657
    2275      444        1     0.00000   14.47201   44.30431   32.99973
    2276      444        1     0.00000   14.46676   31.15589   46.14131
    2277      444        1     0.00000    1.32333   34.56833   32.71582
    2278      444        1     0.00000    1.32412   47.70938   45.84741
    2279      444        1     0.00000   14.46597   34.57279   45.86502
    2280      444        1     0.00000   14.47070   47.71096   32.71240
    2281      444        1     0.00000   24.96089   34.56386   46.13868
    2282      444        1     0.00000   24.95379   47.69677   33.01050
    2283      444        1     0.00000   11.82272   34.57595   33.00052
    2284      444        1     0.00000   11.80984   47.69571   46.15629
    2285      444        1     0.00000   24.95169   44.30536   32.70530
    2286      444        1     0.00000   24.96457   31.15642   45.85714
    2287      444        1     0.00000   11.81378   44.30773   45.84452
    2288      444        1     0.00000   11.81667   31.16194   32.72029
    2289      444        1     0.00000   19.85420   27.60387   44.31246
    2290      444        1     0.00000   19.85315   40.74125   31.16483
    2291      444        1     0.00000    6.70841   27.61334   31.15931
    2292      444        1     0.00000    6.71288   40.75098   44.29275
    2293      444        1     0.00000    6.42818   27.60256   34.57463
    2294      444        1     0.00000    6.42923   40.75124   47.70492
    2295      444        1     0.00000   19.56319   27.59940   47.71648
    2296      444        1     0.00000   19.57055   40.74625   34.57332
    2297      444        1     0.00000   19.85998   51.26719   34.57516
    2298      444        1     0.00000   19.86498   38.11719   47.70991
    2299      444        1     0.00000    6.70788   51.25956   47.71806
    2300      444        1     0.00000    6.71866   38.11667   34.58173
    2301      444        1     0.00000    6.44553   51.25510   44.29353
    2302      444        1     0.00000    6.42240   38.11903   31.15826
    2303      444        1     0.00000   19.58238   51.26482   31.15800
    2304      444        1     0.00000   19.56845   38.12087   44.30904
    2305      444        1     0.00000   19.87181   44.32298   51.24274
    2306      444        1     0.00000   19.86077   31.16930   38.11299
    2307      444        1     0.00000    6.72865   44.31115   38.10063
    2308      444        1     0.00000    6.71971   31.16720   51.25746
    2309      444        1     0.00000    6.42108   34.56465   51.25036
    2310      444        1     0.00000    6.41661   47.69650   38.10089
    2311      444        1     0.00000   19.55793   34.55886   38.12192
    2312      444        1     0.00000   19.55136   47.67652   51.25536
    2313      444        1     0.00000   19.85867   34.56307   27.60571
    2314      444        1     0.00000   19.86340   47.69782   40.75676
    2315      444        1     0.00000    6.71630   34.56543   40.75177
    2316      444        1     0.00000    6.71393   47.69939   27.61596
    2317      444        1     0.00000    6.42371   44.29932   27.61965
    2318      444        1     0.00000    6.43133   31.15484   40.75071
    2319      444        1     0.00000   19.55662   44.31351   40.75623
    2320      444        1     0.00000   19.56792   31.15878   27.60703
    2321      444        1     0.00000   18.00853   27.61938   32.72528
    2322      444        1     0.00000   18.01773   40.75886   45.86161
    2323      444        1     0.00000    4.86116   27.60808   45.86371
    2324      444        1     0.00000    4.86615   40.75860   32.73106
    2325      444        1     0.00000    8.28121   27.61439   46.14525
    2326      444        1     0.00000    8.26255   40.75255   32.99946
    2327      444        1     0.00000   21.42306   27.62017   33.00945
    2328      444        1     0.00000   21.42070   40.75676   46.15367
    2329      444        1     0.00000    8.27990   51.25878   32.71897
    2330      444        1     0.00000    8.27990   38.11141   45.85845
    2331      444        1     0.00000   21.41281   51.25063   45.86476
    2332      444        1     0.00000   21.41912   38.10379   32.72554
    2333      444        1     0.00000   18.01168   51.24537   46.15629
    2334      444        1     0.00000   18.00826   38.10694   33.01418
    2335      444        1     0.00000    4.86615   51.25115   32.99710
    2336      444        1     0.00000    4.86563   38.11036   46.13947
    2337      444        1     0.00000    1.30625   46.15209   34.55282
    2338      444        1     0.00000    1.31702   33.00498   47.69861
    2339      444        1     0.00000   14.44730   46.15314   47.69466
    2340      444        1     0.00000   14.46045   33.00078   34.56780
    2341      444        1     0.00000    1.31650   32.71766   44.28959
    2342      444        1     0.00000    1.30178   45.84820   31.15905
    2343      444        1     0.00000   14.46045   32.72449   31.15248
    2344      444        1     0.00000   14.45256   45.84741   44.30852
    2345      444        1     0.00000   24.97061   46.15340   44.29459
    2346      444        1     0.00000   24.96930   32.99736   31.15169
    2347      444        1     0.00000   11.82982   46.15472   31.15011
    2348      444        1     0.00000   11.82666   33.00341   44.29327
    2349      444        1     0.00000   24.97535   32.72686   34.57043
    2350      444        1     0.00000   24.97403   45.86345   47.69966
    2351      444        1     0.00000   11.82693   32.72554   47.71122
    2352      444        1     0.00000   11.83087   45.85714   34.55098
    2353      444        2     0.00000    7.32486   33.62538   26.28685
    2354      444        2     0.00000    7.33064   46.76039   39.42133
    2355      444        2     0.00000   20.46382   33.61434   39.43868
    2356      444        2     0.00000   20.47643   46.75382   26.28974
    2357      444        2     0.00000   18.95095   45.25068   26.27528
    2358      444        2     0.00000   18.95384   32.10515   39.43763
    2359      444        2     0.00000    5.82093   45.25068   39.42239
    2360      444        2     0.00000    5.81646   32.11566   26.28711
    2361      444        2     0.00000   18.95910   33.61539   26.28422
    2362      444        2     0.00000   18.95910   46.75671   39.43606
    2363      444        2     0.00000    5.81883   33.61670   39.43106
    2364      444        2     0.00000    5.81646   46.75250   26.29473
    2365      444        2     0.00000    7.32249   45.24305   26.29579
    2366      444        2     0.00000    7.32933   32.10725   39.42948
    2367      444        2     0.00000   20.46960   45.24910   39.43632
    2368      444        2     0.00000   20.46881   32.10436   26.28501
    2369      444        2     0.00000    0.00578   33.61592   33.61092
    2370      444        2     0.00000    0.00394   46.75724   46.74593
    2371      444        2     0.00000   13.14632   33.60750   46.74646
    2372      444        2     0.00000   13.15052   46.75724   33.60514
    2373      444        2     0.00000    0.00394   45.25094   45.23885
    2374      444        2     0.00000    0.00421   32.10541   32.10436
    2375      444        2     0.00000   13.15052   45.24989   32.09463
    2376      444        2     0.00000   13.14632   32.10147   45.23858
    2377      444        2     0.00000   -0.01498   45.24358   33.61407
    2378      444        2     0.00000   -0.00315   32.11093   46.74751
    2379      444        2     0.00000   13.13107   45.24805   46.75277
    2380      444        2     0.00000   13.13869   32.11120   33.61434
    2381      444        2     0.00000   -0.00499   33.62012   45.23464
    2382      444        2     0.00000   -0.01630   46.75329   32.10410
    2383      444        2     0.00000   13.14158   33.62249   32.10410
    2384      444        2     0.00000   13.13186   46.75881   45.24437
    2385      444        2     0.00000    7.32539   26.28711   33.61854
    2386      444        2     0.00000    7.32539   39.43106   46.75224
    2387      444        2     0.00000   20.46697   26.28133   46.77012
    2388      444        2     0.00000   20.47170   39.42554   33.62696
    2389      444        2     0.00000   18.95752   26.28080   45.25883
    2390      444        2     0.00000   18.96067   39.42475   32.11856
    2391      444        2     0.00000    5.81672   26.28816   32.10778
    2392      444        2     0.00000    5.81488   39.43080   45.24121
    2393      444        2     0.00000    7.33222   26.29053   45.25015
    2394      444        2     0.00000    7.29016   39.43658   32.13380
    2395      444        2     0.00000   20.46855   26.29920   32.11856
    2396      444        2     0.00000   20.46776   39.43842   45.25804
    2397      444        2     0.00000   18.95726   26.29894   33.62748
    2398      444        2     0.00000   18.95910   39.43790   46.76828
    2399      444        2     0.00000    5.81830   26.29000   46.75697
    2400      444        2     0.00000    5.79543   39.43737   33.65771
    2401      444        3     0.00000    8.48863   30.95584   49.64969
    2402      444        3     0.00000    7.80935   31.63985   50.78113
    2403      444        3     0.00000    8.49625   44.10006   36.49207
    2404      444        3     0.00000    7.81828   44.78459   37.62377
    2405      444        3     0.00000   17.79112   47.88972   49.63865
    2406      444        3     0.00000   18.46094   47.20729   50.77350
    2407      444        3     0.00000   17.79086   34.77048   36.51600
    2408      444        3     0.00000   18.46804   34.08647   37.64611
    2409      444        3     0.00000    4.65427   34.77048   49.64023
    2410      444        3     0.00000    5.33250   34.08962   50.77350
    2411      444        3     0.00000   17.79927   30.95427   29.21663
    2412      444        3     0.00000   18.47855   31.63354   28.08310
    2413      444        3     0.00000   17.79112   44.10006   42.36374
    2414      444        3     0.00000   18.46672   44.78591   41.23205
    2415      444        3     0.00000    4.65848   30.94690   42.35822
    2416      444        3     0.00000    5.34065   31.62750   41.22652
    2417      444        3     0.00000    8.48600   47.91443   29.21953
    2418      444        3     0.00000    7.80514   47.22832   28.09046
    2419      444        3     0.00000    8.48915   34.77442   42.35533
    2420      444        3     0.00000    7.80751   34.09304   41.22574
    2421      444        3     0.00000   23.35838   34.76680   30.94796
    2422      444        3     0.00000   24.49323   34.08752   31.62487
    2423      444        3     0.00000   10.22179   34.77521   44.08507
    2424      444        3     0.00000   11.35164   34.09357   44.76751
    2425      444        3     0.00000   23.36889   44.09375   47.91443
    2426      444        3     0.00000   24.49743   44.77329   47.22832
    2427      444        3     0.00000   23.36337   30.95952   34.77837
    2428      444        3     0.00000   24.49796   31.63644   34.09909
    2429      444        3     0.00000   10.22152   44.09112   34.75707
    2430      444        3     0.00000   11.35322   44.76856   34.07569
    2431      444        3     0.00000    2.91270   44.08244   30.94980
    2432      444        3     0.00000    1.77969   44.75962   31.63249
    2433      444        3     0.00000   16.06532   44.08665   44.09979
    2434      444        3     0.00000   14.93074   44.75936   44.78301
    2435      444        3     0.00000   16.06795   30.95374   30.94717
    2436      444        3     0.00000   14.93521   31.63381   31.62618
    2437      444        3     0.00000    2.92611   34.77285   47.90602
    2438      444        3     0.00000    1.79415   34.09409   47.22464
    2439      444        3     0.00000   16.06611   34.77179   34.78047
    2440      444        3     0.00000   14.93784   34.09094   34.09593
    2441      444        3     0.00000    4.65559   49.64023   34.76496
    2442      444        3     0.00000    5.33855   50.77271   34.08673
    2443      444        3     0.00000    4.65874   36.50233   47.90943
    2444      444        3     0.00000    5.33986   37.63376   47.22910
    2445      444        3     0.00000   21.62075   49.64260   44.09559
    2446      444        3     0.00000   20.93910   50.77429   44.77513
    2447      444        3     0.00000   21.62548   36.49681   30.95269
    2448      444        3     0.00000   20.94436   37.62771   31.63591
    2449      444        3     0.00000    8.48968   49.65311   30.94559
    2450      444        3     0.00000    7.80803   50.78402   31.62750
    2451      444        3     0.00000    4.65638   29.21637   44.09138
    2452      444        3     0.00000    5.33566   28.08442   44.77408
    2453      444        3     0.00000    4.64954   42.35796   30.95111
    2454      444        3     0.00000    5.33487   41.23205   31.63749
    2455      444        3     0.00000   21.62811   29.23214   34.77626
    2456      444        3     0.00000   20.94883   28.09835   34.09804
    2457      444        3     0.00000   21.63389   42.36453   47.92337
    2458      444        3     0.00000   20.94909   41.23310   47.24409
    2459      444        3     0.00000    8.48994   42.36111   34.76680
    2460      444        3     0.00000    7.80383   41.22994   34.09488
    2461      444        3     0.00000    4.65769   34.78573   29.21111
    2462      444        3     0.00000    5.34065   34.10802   28.07995
    2463      444        3     0.00000    4.67267   47.92126   42.35060
    2464      444        3     0.00000    5.35485   47.24488   41.21890
    2465      444        3     0.00000   21.60865   44.06588   29.21006
    2466      444        3     0.00000   20.92149   44.74490   28.07942
    2467      444        3     0.00000   21.61549   30.93928   42.36611
    2468      444        3     0.00000   20.93332   31.61541   41.23231
    2469      444        3     0.00000    8.46865   30.96031   29.22689
    2470      444        3     0.00000    7.79121   31.63512   28.08967
    2471      444        3     0.00000    4.65979   44.08796   49.64812
    2472      444        3     0.00000    5.34118   44.76251   50.78402
    2473      444        3     0.00000    4.66190   30.94822   36.50364
    2474      444        3     0.00000    5.34354   31.62986   37.63376
    2475      444        3     0.00000   21.62364   34.77153   49.64128
    2476      444        3     0.00000   20.94252   34.09304   50.77403
    2477      444        3     0.00000   21.61523   47.92731   36.50969
    2478      444        3     0.00000   20.93016   47.25145   37.64086
    2479      444        3     0.00000    8.48679   34.78205   36.50390
    2480      444        3     0.00000    7.80435   34.09961   37.63455
    2481      444        3     0.00000    8.47811   49.64917   47.92731
    2482      444        3     0.00000    7.79936   50.78323   47.24751
    2483      444        3     0.00000    8.48731   36.51442   34.77311
    2484      444        3     0.00000    7.80488   37.64611   34.09830
    2485      444        3     0.00000   17.81321   49.65285   30.95295
    2486      444        3     0.00000   18.49301   50.78638   31.63144
    2487      444        3     0.00000   17.80111   36.51468   44.09769
    2488      444        3     0.00000   18.47908   37.64427   44.78196
    2489      444        3     0.00000    4.65638   36.50916   30.94743
    2490      444        3     0.00000    5.33750   37.63770   31.63433
    2491      444        3     0.00000   17.79849   29.21295   47.91574
    2492      444        3     0.00000   18.47540   28.07705   47.23962
    2493      444        3     0.00000   17.80164   42.35428   34.77863
    2494      444        3     0.00000   18.48013   41.22179   34.09935
    2495      444        3     0.00000    4.65664   29.20901   34.78099
    2496      444        3     0.00000    5.33802   28.07811   34.10119
    2497      444        3     0.00000    8.46996   29.23136   30.96031
    2498      444        3     0.00000    7.79568   28.09256   31.63565
    2499      444        3     0.00000    8.48337   42.35690   44.08271
    2500      444        3     0.00000    7.80304   41.22679   44.76566
    2501      444        3     0.00000   23.35102   30.94585   44.09375
    2502      444        3     0.00000   24.48586   31.62776   44.76803
    2503      444        3     0.00000   10.20339   30.96005   30.95505
    2504      444        3     0.00000   11.33981   31.63696   31.63118
    2505      444        3     0.00000   23.34839   47.91312   34.77994
    2506      444        3     0.00000   24.47745   47.22464   34.10066
    2507      444        3     0.00000   10.20286   47.90891   47.92416
    2508      444        3     0.00000   11.33271   47.22174   47.24514
    2509      444        3     0.00000   10.21732   34.78415   34.77258
    2510      444        3     0.00000   11.34665   34.10303   34.09067
    2511      444        3     0.00000    2.93215   30.94612   34.77074
    2512      444        3     0.00000    1.80335   31.62724   34.08621
    2513      444        3     0.00000   16.07347   30.94848   47.91180
    2514      444        3     0.00000   14.94309   31.62960   47.23147
    2515      444        3     0.00000    2.93715   47.91811   44.07902
    2516      444        3     0.00000    1.80204   47.23646   44.75778
    2517      444        3     0.00000    2.92742   34.77705   30.94428
    2518      444        3     0.00000    1.79783   34.09435   31.62566
    2519      444        3     0.00000   16.08451   47.91837   30.94717
    2520      444        3     0.00000   14.94940   47.23778   31.62356
    2521      444        3     0.00000   17.81899   47.93152   29.21374
    2522      444        3     0.00000   18.50905   47.26223   28.07942
    2523      444        3     0.00000   17.80874   34.78441   42.36663
    2524      444        3     0.00000   18.49275   34.10329   41.23730
    2525      444        3     0.00000    8.47680   44.08271   42.34797
    2526      444        3     0.00000    7.79305   44.75936   41.21706
    2527      444        3     0.00000    8.47469   47.91548   49.65679
    2528      444        3     0.00000    7.79594   47.23305   50.78770
    2529      444        3     0.00000   17.80374   30.94822   49.64233
    2530      444        3     0.00000   18.48434   31.62724   50.77455
    2531      444        3     0.00000   17.81084   44.08691   36.50574
    2532      444        3     0.00000   18.49380   44.76225   37.63875
    2533      444        3     0.00000    2.93215   44.09637   47.91154
    2534      444        3     0.00000    1.80098   44.77749   47.22910
    2535      444        3     0.00000   16.07926   44.09532   34.77258
    2536      444        3     0.00000   14.94809   44.77802   34.09015
    2537      444        3     0.00000   16.07268   34.78283   44.09375
    2538      444        3     0.00000   14.94152   34.10172   44.77381
    2539      444        3     0.00000   23.35496   34.76943   47.91022
    2540      444        3     0.00000   24.48665   34.08962   47.22937
    2541      444        3     0.00000   23.34287   44.08849   30.94138
    2542      444        3     0.00000   24.47351   44.77802   31.61646
    2543      444        3     0.00000   10.20969   44.09375   44.07640
    2544      444        3     0.00000   11.33797   44.78117   44.75489
    2545      444        3     0.00000   21.61812   29.21690   44.10584
    2546      444        3     0.00000   20.94173   28.08336   44.78748
    2547      444        3     0.00000   21.62022   42.34744   30.95032
    2548      444        3     0.00000   20.94357   41.21838   31.63591
    2549      444        3     0.00000    4.65953   42.36085   47.91285
    2550      444        3     0.00000    5.33934   41.22810   47.23173
    2551      444        3     0.00000   21.63021   49.65942   34.78205
    2552      444        3     0.00000   20.95067   50.79190   34.10145
    2553      444        3     0.00000   21.62995   36.50548   47.91259
    2554      444        3     0.00000   20.95356   37.64059   47.23410
    2555      444        3     0.00000    4.67346   49.64733   44.08349
    2556      444        3     0.00000    5.35432   50.77850   44.76461
    2557      444        3     0.00000   21.64151   44.10531   49.64575
    2558      444        3     0.00000   20.96591   44.79248   50.77482
    2559      444        3     0.00000   21.62364   30.97030   36.49943
    2560      444        3     0.00000   20.94804   31.64643   37.63560
    2561      444        3     0.00000    4.64691   47.90707   36.49549
    2562      444        3     0.00000    5.32619   47.22279   37.62640
    2563      444        3     0.00000   21.62653   34.76811   29.21742
    2564      444        3     0.00000   20.94778   34.08857   28.08310
    2565      444        3     0.00000   21.62863   47.91049   42.36453
    2566      444        3     0.00000   20.95330   47.22569   41.23283
    2567      444        3     0.00000    4.64639   44.08901   29.21979
    2568      444        3     0.00000    5.33119   44.77276   28.09178
    2569      444        3     0.00000   17.80322   29.22636   30.95242
    2570      444        3     0.00000   18.48434   28.09598   31.63617
    2571      444        3     0.00000   17.80506   42.36505   44.09243
    2572      444        3     0.00000   18.49065   41.23494   44.77145
    2573      444        3     0.00000    8.48521   29.22400   47.91653
    2574      444        3     0.00000    7.80514   28.09151   47.23410
    2575      444        3     0.00000    8.48968   36.50574   44.08533
    2576      444        3     0.00000    7.80751   37.63560   44.76777
    2577      444        3     0.00000   17.80322   49.62893   47.91706
    2578      444        3     0.00000   18.48513   50.76509   47.24435
    2579      444        3     0.00000   17.79717   36.50285   34.78625
    2580      444        3     0.00000   18.48092   37.63165   34.10461
    2581      444        3     0.00000    2.91638   47.91706   34.76233
    2582      444        3     0.00000    1.78311   47.24093   34.07884
    2583      444        3     0.00000   16.06296   47.90865   47.90575
    2584      444        3     0.00000   14.92758   47.24041   47.22148
    2585      444        3     0.00000    2.92505   30.94769   44.08717
    2586      444        3     0.00000    1.79283   31.62881   44.76566
    2587      444        3     0.00000   23.35943   47.91969   44.09348
    2588      444        3     0.00000   24.49375   47.24199   44.77092
    2589      444        3     0.00000   10.22047   47.92284   30.94717
    2590      444        3     0.00000   11.35322   47.24330   31.62645
    2591      444        3     0.00000   10.21995   30.95269   47.92021
    2592      444        3     0.00000   11.35006   31.63538   47.23883
    2593      444        3     0.00000    9.64372   31.51367   49.07346
    2594      444        4     0.00000   10.06669   32.41640   49.49617
    2595      444        3     0.00000    9.65029   44.65473   35.91243
    2596      444        4     0.00000   10.07379   45.55930   36.33067
    2597      444        3     0.00000   16.63682   47.33610   49.05559
    2598      444        4     0.00000   16.20360   46.43547   49.47567
    2599      444        3     0.00000   16.63998   34.21055   35.93503
    2600      444        4     0.00000   16.21648   33.30730   36.35590
    2601      444        3     0.00000    3.49103   47.35266   35.91689
    2602      444        4     0.00000    3.06438   46.45151   36.34039
    2603      444        3     0.00000   16.64497   31.51420   29.79339
    2604      444        4     0.00000   16.22174   32.41666   29.37016
    2605      444        3     0.00000   16.63761   44.65368   42.94628
    2606      444        4     0.00000   16.21070   45.55614   42.52620
    2607      444        3     0.00000    3.49208   44.64737   29.79891
    2608      444        4     0.00000    3.06780   45.54957   29.37778
    2609      444        3     0.00000    9.63846   47.35555   29.79917
    2610      444        4     0.00000   10.05801   46.44862   29.38199
    2611      444        3     0.00000    9.64372   34.21449   42.93182
    2612      444        4     0.00000   10.06695   33.31308   42.50727
    2613      444        3     0.00000   22.77925   35.91795   31.51236
    2614      444        4     0.00000   23.20196   36.33908   32.41614
    2615      444        3     0.00000   22.77663   49.06952   44.65631
    2616      444        4     0.00000   23.19776   49.49381   45.55930
    2617      444        3     0.00000    9.64372   35.92820   44.64553
    2618      444        4     0.00000   10.06459   36.35012   45.54931
    2619      444        3     0.00000   22.78556   42.94128   47.35791
    2620      444        4     0.00000   23.19960   42.52094   46.45177
    2621      444        3     0.00000   22.78688   29.80391   34.22054
    2622      444        4     0.00000   23.21406   29.37515   33.32228
    2623      444        3     0.00000    9.64109   29.79970   47.35870
    2624      444        4     0.00000   10.06353   29.37699   46.45571
    2625      444        3     0.00000    3.49314   42.93077   31.50920
    2626      444        4     0.00000    3.07174   42.50622   32.41088
    2627      444        3     0.00000    3.50313   29.79549   44.65052
    2628      444        4     0.00000    3.08147   29.37620   45.55562
    2629      444        3     0.00000    3.50575   35.92557   47.34687
    2630      444        4     0.00000    3.08410   36.35012   46.44415
    2631      444        3     0.00000    3.50129   49.06663   34.20214
    2632      444        4     0.00000    3.08147   49.49065   33.29888
    2633      444        3     0.00000    5.21315   49.05927   35.91847
    2634      444        4     0.00000    6.11798   49.47803   36.34118
    2635      444        3     0.00000   18.36052   49.04034   49.06610
    2636      444        4     0.00000   19.26141   49.45700   49.49617
    2637      444        3     0.00000   18.35500   35.92399   35.94029
    2638      444        4     0.00000   19.25878   36.34460   36.36379
    2639      444        3     0.00000   21.06160   49.06111   42.94312
    2640      444        4     0.00000   20.15651   49.48014   42.52068
    2641      444        3     0.00000   21.06502   35.92031   29.79812
    2642      444        4     0.00000   20.16124   36.34302   29.37725
    2643      444        3     0.00000    7.92554   49.06952   29.79576
    2644      444        4     0.00000    7.02097   49.48986   29.37489
    2645      444        3     0.00000    5.21894   29.79444   42.93839
    2646      444        4     0.00000    6.12271   29.37200   42.51700
    2647      444        3     0.00000   18.36236   29.80286   29.79707
    2648      444        4     0.00000   19.26561   29.38067   29.37436
    2649      444        3     0.00000   21.06055   29.81836   35.92136
    2650      444        4     0.00000   20.15336   29.40065   36.34013
    2651      444        3     0.00000    7.92422   29.80443   49.06873
    2652      444        4     0.00000    7.01861   29.38488   49.48618
    2653      444        3     0.00000    5.21447   35.93977   29.78866
    2654      444        4     0.00000    6.11746   36.36405   29.36858
    2655      444        3     0.00000   18.36683   35.93766   42.94549
    2656      444        4     0.00000   19.27140   36.35958   42.52488
    2657      444        3     0.00000   21.05608   42.91263   29.79287
    2658      444        4     0.00000   20.15336   42.48545   29.37515
    2659      444        3     0.00000    7.91976   42.93024   42.92919
    2660      444        4     0.00000    7.01703   42.50543   42.50885
    2661      444        3     0.00000    7.90530   29.81127   29.81022
    2662      444        4     0.00000    7.00310   29.38698   29.38777
    2663      444        3     0.00000    5.21841   42.93498   49.06873
    2664      444        4     0.00000    6.12061   42.51121   49.49118
    2665      444        3     0.00000    5.21762   29.78892   35.93319
    2666      444        4     0.00000    6.11746   29.36385   36.35958
    2667      444        3     0.00000   18.36552   42.93077   35.93056
    2668      444        4     0.00000   19.26640   42.50464   36.35433
    2669      444        3     0.00000   21.06581   35.92636   49.06400
    2670      444        4     0.00000   20.16229   36.34881   49.48513
    2671      444        3     0.00000    7.92317   35.93162   35.92242
    2672      444        4     0.00000    7.01519   36.34802   36.33987
    2673      444        3     0.00000    9.62873   49.06584   47.36396
    2674      444        4     0.00000   10.05144   49.48697   46.45992
    2675      444        3     0.00000    9.63741   35.93530   34.20844
    2676      444        4     0.00000   10.05565   36.35301   33.29967
    2677      444        3     0.00000   16.65917   49.07241   31.51183
    2678      444        4     0.00000   16.23199   49.49670   32.41324
    2679      444        3     0.00000   16.64760   35.93635   44.65526
    2680      444        4     0.00000   16.22226   36.36011   45.55667
    2681      444        3     0.00000    3.50234   35.93109   31.50500
    2682      444        4     0.00000    3.08015   36.35301   32.40851
    2683      444        3     0.00000   16.64681   29.79181   47.35397
    2684      444        4     0.00000   16.22069   29.36674   46.45414
    2685      444        3     0.00000   16.65076   42.93629   34.21659
    2686      444        4     0.00000   16.22542   42.51279   33.31544
    2687      444        3     0.00000    3.50497   29.78735   34.21712
    2688      444        4     0.00000    3.07963   29.36096   33.31702
    2689      444        3     0.00000    9.62584   29.80732   31.51761
    2690      444        4     0.00000   10.05144   29.38356   32.41876
    2691      444        3     0.00000    9.63557   42.93971   44.64132
    2692      444        4     0.00000   10.05933   42.52120   45.54589
    2693      444        3     0.00000   22.77032   31.50237   42.93997
    2694      444        4     0.00000   23.19303   32.40352   42.51305
    2695      444        3     0.00000   22.76112   44.63633   29.78498
    2696      444        4     0.00000   23.17489   45.54247   29.36148
    2697      444        3     0.00000    9.62374   31.52077   29.80233
    2698      444        4     0.00000   10.04986   32.42008   29.37541
    2699      444        3     0.00000   22.76085   47.35371   35.92820
    2700      444        4     0.00000   23.16884   46.44099   36.34223
    2701      444        3     0.00000   22.77531   34.20818   49.06242
    2702      444        4     0.00000   23.19644   33.30414   49.48461
    2703      444        3     0.00000    9.64345   34.22474   35.92925
    2704      444        4     0.00000   10.06616   33.32149   36.35301
    2705      444        3     0.00000    3.51311   31.51209   35.92005
    2706      444        4     0.00000    3.09829   32.42271   36.33251
    2707      444        3     0.00000    3.50838   44.65368   49.06821
    2708      444        4     0.00000    3.08594   45.55640   49.49223
    2709      444        3     0.00000    3.51732   47.35975   42.92551
    2710      444        4     0.00000    3.09487   46.45755   42.50070
    2711      444        3     0.00000    3.50970   34.21765   29.79287
    2712      444        4     0.00000    3.09172   33.31334   29.37068
    2713      444        3     0.00000   16.66732   47.36028   29.79287
    2714      444        4     0.00000   16.25013   46.45151   29.37384
    2715      444        3     0.00000   16.65365   34.22317   42.94128
    2716      444        4     0.00000   16.23120   33.32175   42.51647
    2717      444        3     0.00000    9.62952   44.64895   42.92262
    2718      444        4     0.00000   10.04934   45.55220   42.49781
    2719      444        3     0.00000    9.62505   47.35187   49.07793
    2720      444        4     0.00000   10.04645   46.44940   49.50143
    2721      444        3     0.00000   16.65286   31.51157   49.06269
    2722      444        4     0.00000   16.23304   32.41771   49.48224
    2723      444        3     0.00000   16.66259   44.65631   35.92347
    2724      444        4     0.00000   16.24540   45.56298   36.34381
    2725      444        3     0.00000    3.50996   42.94365   47.35003
    2726      444        4     0.00000    3.08673   42.52199   46.44704
    2727      444        3     0.00000    3.51785   49.06952   44.64237
    2728      444        4     0.00000    3.09619   49.49091   45.54589
    2729      444        3     0.00000   22.78031   35.92426   47.35055
    2730      444        4     0.00000   23.20249   36.34565   46.44678
    2731      444        3     0.00000   22.78083   49.07399   34.22133
    2732      444        4     0.00000   23.20617   49.49433   33.31860
    2733      444        3     0.00000   22.76926   42.93655   31.50973
    2734      444        4     0.00000   23.19723   42.51779   32.41219
    2735      444        3     0.00000   22.77242   29.79681   44.66235
    2736      444        4     0.00000   23.19671   29.37804   45.56666
    2737      444        3     0.00000   21.05503   29.79024   42.95127
    2738      444        4     0.00000   20.15125   29.36621   42.53172
    2739      444        3     0.00000   18.36184   29.79313   49.06610
    2740      444        4     0.00000   19.26325   29.36832   49.48881
    2741      444        3     0.00000   21.06555   49.08608   35.93530
    2742      444        4     0.00000   20.16755   49.51668   36.36037
    2743      444        3     0.00000    7.91529   49.07110   49.08030
    2744      444        4     0.00000    7.01335   49.49670   49.50301
    2745      444        3     0.00000    5.23497   49.07136   42.93077
    2746      444        4     0.00000    6.14006   49.49197   42.51016
    2747      444        3     0.00000   18.37524   49.08030   29.79917
    2748      444        4     0.00000   19.27849   49.50301   29.38067
    2749      444        3     0.00000   21.07764   42.94812   49.07530
    2750      444        4     0.00000   20.17728   42.52515   49.50301
    2751      444        3     0.00000    7.93159   42.94681   35.91742
    2752      444        4     0.00000    7.02781   42.52962   36.34276
    2753      444        3     0.00000    5.21736   35.92347   49.06321
    2754      444        4     0.00000    6.12193   36.34355   49.48566
    2755      444        3     0.00000    7.92817   35.92767   42.93235
    2756      444        4     0.00000    7.02439   36.34907   42.50911
    2757      444        3     0.00000    5.20474   42.93261   29.79313
    2758      444        4     0.00000    6.10536   42.51043   29.36700
    2759      444        3     0.00000   18.35921   42.94707   42.93787
    2760      444        4     0.00000   19.26220   42.52804   42.51200
    2761      444        3     0.00000   16.64865   29.80338   31.51131
    2762      444        4     0.00000   16.22699   29.38225   32.41535
    2763      444        3     0.00000   16.65023   42.93629   44.65710
    2764      444        4     0.00000   16.22989   42.50964   45.55930
    2765      444        3     0.00000    9.63898   42.93839   34.19793
    2766      444        4     0.00000   10.05854   42.51437   33.29336
    2767      444        3     0.00000    9.64608   49.07977   31.50395
    2768      444        4     0.00000   10.07037   49.50485   32.40562
    2769      444        3     0.00000   16.64734   49.06111   47.35213
    2770      444        4     0.00000   16.23357   49.48487   46.44546
    2771      444        3     0.00000   16.64497   35.92583   34.22290
    2772      444        4     0.00000   16.22384   36.34986   33.31991
    2773      444        3     0.00000    3.50207   34.21081   49.06006
    2774      444        4     0.00000    3.07936   33.30703   49.48040
    2775      444        3     0.00000    3.50391   31.50763   42.93366
    2776      444        4     0.00000    3.08068   32.40983   42.50911
    2777      444        3     0.00000   22.78399   47.35607   42.94128
    2778      444        4     0.00000   23.20932   46.45414   42.51989
    2779      444        3     0.00000   22.78004   34.20713   29.79444
    2780      444        4     0.00000   23.20380   33.30572   29.36989
    2781      444        3     0.00000   22.78004   31.52708   35.92531
    2782      444        4     0.00000   23.20223   32.43112   36.34644
    2783      444        3     0.00000   22.79608   44.65867   49.06768
    2784      444        4     0.00000   23.22194   45.55877   49.49302
    2785       97        5     0.00000   11.06983   35.43556   52.07002
    2786       97        6     0.00000   11.33087   36.38981   52.11655
    2787       97        6     0.00000   11.73755   35.02179   51.46671
    2788       98        5     0.00000   13.03512   28.40066   52.42727
    2789       98        6     0.00000   12.04722   28.38121   52.49431
    2790       98        6     0.00000   13.26593   27.60308   51.88706
    2791       99        5     0.00000   12.67760   36.94948   30.84464
    2792       99        6     0.00000   13.03591   37.76283   31.28181
    2793       99        6     0.00000   11.69338   37.05306   30.88960
    2794      100        5     0.00000   22.98956   43.42998   37.50574
    2795      100        6     0.00000   23.48219   44.22282   37.83775
    2796      100        6     0.00000   22.56843   43.73097   36.66084
    2797      101        5     0.00000   11.44233   47.70649   38.00153
    2798      101        6     0.00000   11.54801   46.73463   38.16162
    2799      101        6     0.00000   10.74728   47.77274   37.29885
    2800      102        5     0.00000   22.55160   52.07764   37.78518
    2801      102        6     0.00000   22.69802   51.88916   36.82383
    2802      102        6     0.00000   22.21328   51.22434   38.15741
    2803      103        5     0.00000    7.78174   26.72323   38.03780
    2804      103        6     0.00000    8.19368   26.81287   38.93422
    2805      103        6     0.00000    6.89610   26.31393   38.20841
    2806      104        5     0.00000    5.44107   27.41118   51.48012
    2807      104        6     0.00000    5.78833   28.32732   51.33291
    2808      104        6     0.00000    6.20447   26.91329   51.86813
    2809      105        5     0.00000   14.21702   43.56773   38.26966
    2810      105        6     0.00000   13.72596   44.06641   38.97050
    2811      105        6     0.00000   15.15971   43.85479   38.37218
    2812      106        5     0.00000   14.03905   35.27310   28.09966
    2813      106        6     0.00000   14.69835   34.54256   28.21270
    2814      106        6     0.00000   14.42601   35.85433   27.39699
    2815      107        5     0.00000   20.95067   41.50781   26.25925
    2816      107        6     0.00000   21.12995   41.10665   27.14673
    2817      107        6     0.00000   21.76796   42.02594   26.04842
    2818      108        5     0.00000   20.70198   32.68953   46.19809
    2819      108        6     0.00000   21.67148   32.56650   46.35871
    2820      108        6     0.00000   20.27428   32.47318   47.06507
    2821      109        5     0.00000   26.09337   29.95822   48.60475
    2822      109        6     0.00000   26.66618   30.21347   49.37157
    2823      109        6     0.00000   25.41251   29.35097   48.99013
    2824      110        5     0.00000   14.16182   38.86929   43.19076
    2825      110        6     0.00000   13.65972   39.69420   43.41158
    2826      110        6     0.00000   13.76540   38.55515   42.33903
    2827      111        5     0.00000   23.19565   28.87016   38.38743
    2828      111        6     0.00000   22.25297   28.62805   38.57118
    2829      111        6     0.00000   23.68461   28.58730   39.20025
    2830      112        5     0.00000   10.05512   27.45298   28.64277
    2831      112        6     0.00000    9.91396   26.81681   29.38935
    2832      112        6     0.00000    9.15240   27.59283   28.26002
    2833      113        5     0.00000   25.53817   46.54483   37.86483
    2834      113        6     0.00000   26.32628   47.14235   37.80857
    2835      113        6     0.00000   24.89727   47.02905   38.44474
    2836      114        5     0.00000   14.68784   48.88077   41.14766
    2837      114        6     0.00000   14.27959   48.06322   41.52989
    2838      114        6     0.00000   14.08900   49.61710   41.43157
    2839      115        5     0.00000    7.77491   34.77285   31.47030
    2840      115        6     0.00000    8.51360   34.33541   31.96372
    2841      115        6     0.00000    7.28806   35.29440   32.15746
    2842      116        5     0.00000   17.11789   30.39328   43.87424
    2843      116        6     0.00000   16.95018   30.67141   42.93866
    2844      116        6     0.00000   16.91022   29.42484   43.88896
    2845      117        5     0.00000   22.12758   50.35368   50.39469
    2846      117        6     0.00000   21.92910   50.09922   49.45832
    2847      117        6     0.00000   21.46223   49.85868   50.93622
    2848      118        5     0.00000   25.78028   52.30582   38.30936
    2849      118        6     0.00000   26.29710   51.65546   37.76993
    2850      118        6     0.00000   25.25505   51.74931   38.93816
    2851      119        5     0.00000    5.85274   39.68185   41.14819
    2852      119        6     0.00000    6.03412   38.73285   41.36717
    2853      119        6     0.00000    6.55200   39.92580   40.49046
    2854      120        5     0.00000   10.46101   36.95868   39.53595
    2855      120        6     0.00000    9.87400   36.41768   40.12243
    2856      120        6     0.00000   11.14186   37.34038   40.14583
    2857      121        5     0.00000   25.63885   26.65278   31.45558
    2858      121        6     0.00000   25.06525   26.30052   30.72871
    2859      121        6     0.00000   26.30893   27.21823   30.99449
    2860      122        5     0.00000   16.73251   40.61323   37.86614
    2861      122        6     0.00000   16.52457   39.64504   37.83539
    2862      122        6     0.00000   15.99540   41.04461   37.36457
    2863      123        5     0.00000   13.82560   33.91533   40.64083
    2864      123        6     0.00000   13.37660   34.79808   40.63873
    2865      123        6     0.00000   13.77723   33.60671   39.70078
    2866      124        5     0.00000    1.77180   33.01497   39.16687
    2867      124        6     0.00000    1.33411   32.13091   39.25598
    2868      124        6     0.00000    1.64930   33.26077   38.21498
    2869      125        5     0.00000   18.83791   46.62948   45.56403
    2870      125        6     0.00000   19.62655   46.91470   46.09110
    2871      125        6     0.00000   18.64154   47.39814   44.97097
    2872      126        5     0.00000   10.98545   48.14235   26.70483
    2873      126        6     0.00000   10.24992   47.68310   26.22639
    2874      126        6     0.00000   10.62320   49.03876   26.92170
    2875      127        5     0.00000   16.73724   30.58597   35.31937
    2876      127        6     0.00000   15.83136   30.18771   35.36590
    2877      127        6     0.00000   17.15627   30.35858   36.18792
    2878      128        5     0.00000   19.63102   39.54252   39.50020
    2879      128        6     0.00000   20.46014   39.65372   38.96997
    2880      128        6     0.00000   19.45988   40.43710   39.88926
    2881      444        1     0.00000   34.57017    6.44343   24.96798
    2882      444        1     0.00000   34.57937   19.58738   11.81142
    2883      444        1     0.00000   47.71122    6.44606   11.82824
    2884      444        1     0.00000   47.73462   19.58922   24.97140
    2885      444        1     0.00000   44.26672   19.83185   24.95694
    2886      444        1     0.00000   44.28170    6.70762   11.83271
    2887      444        1     0.00000   31.14196   19.84395   11.81510
    2888      444        1     0.00000   31.14696    6.71183   24.96273
    2889      444        1     0.00000   44.29301    6.43528    1.31755
    2890      444        1     0.00000   44.28013   19.58843   14.46807
    2891      444        1     0.00000   31.15589    6.43028   14.46334
    2892      444        1     0.00000   31.14564   19.57423    1.32517
    2893      444        1     0.00000   34.56649   19.84973    1.32728
    2894      444        1     0.00000   34.56859    6.71498   14.46203
    2895      444        1     0.00000   47.71701   19.84763   14.46939
    2896      444        1     0.00000   47.70938    6.71078    1.31834
    2897      444        1     0.00000   51.25930    8.27491    6.42503
    2898      444        1     0.00000   51.25878   21.42674   19.57239
    2899      444        1     0.00000   38.11430    8.27727   19.57108
    2900      444        1     0.00000   38.11719   21.42700    6.42923
    2901      444        1     0.00000   51.25851   18.01194   19.84868
    2902      444        1     0.00000   51.26088    4.87246    6.72182
    2903      444        1     0.00000   38.11614   18.00721    6.69711
    2904      444        1     0.00000   38.11325    4.87325   19.86077
    2905      444        1     0.00000   27.59336   17.99801    6.43607
    2906      444        1     0.00000   27.60492    4.86931   19.56845
    2907      444        1     0.00000   40.74230   17.99643   19.58501
    2908      444        1     0.00000   40.74572    4.87194    6.42739
    2909      444        1     0.00000   27.60598    8.28043   19.84658
    2910      444        1     0.00000   27.59546   21.42595    6.69973
    2911      444        1     0.00000   40.75255    8.27780    6.71735
    2912      444        1     0.00000   40.74072   21.43016   19.84421
    2913      444        1     0.00000   32.71582   24.96036    8.27464
    2914      444        1     0.00000   32.71766   11.82167   21.41491
    2915      444        1     0.00000   45.86161   24.95431   21.43305
    2916      444        1     0.00000   45.86056   11.81720    8.28884
    2917      444        1     0.00000   46.13658   24.96141   18.01405
    2918      444        1     0.00000   46.14078   11.81510    4.87693
    2919      444        1     0.00000   33.00551   24.97166    4.86642
    2920      444        1     0.00000   33.00446   11.82193   18.00669
    2921      444        1     0.00000   32.71503    1.32176   18.01483
    2922      444        1     0.00000   32.70714   14.46387    4.87325
    2923      444        1     0.00000   45.86292    1.33201    4.87693
    2924      444        1     0.00000   45.86949   14.47228   18.01063
    2925      444        1     0.00000   46.14631    1.33516    8.28384
    2926      444        1     0.00000   46.14604   14.47096   21.43016
    2927      444        1     0.00000   33.00262    1.32649   21.41780
    2928      444        1     0.00000   33.00577   14.47175    8.29410
    2929      444        1     0.00000   32.71897    8.29383    1.31702
    2930      444        1     0.00000   32.73264   21.43147   14.45440
    2931      444        1     0.00000   45.87186    8.28726   14.47359
    2932      444        1     0.00000   45.89526   21.44304    1.32386
    2933      444        1     0.00000   46.11581   17.99065    1.31045
    2934      444        1     0.00000   46.13053    4.85406   14.46807
    2935      444        1     0.00000   32.99026   17.99801   14.45388
    2936      444        1     0.00000   32.99026    4.87246    1.32333
    2937      444        1     0.00000   32.71634   17.99722   24.97587
    2938      444        1     0.00000   32.72160    4.86852   11.82141
    2939      444        1     0.00000   45.87239   18.00038   11.82693
    2940      444        1     0.00000   45.86134    4.86458   24.96378
    2941      444        1     0.00000   46.14105    8.27990   24.96273
    2942      444        1     0.00000   46.12712   21.43621   11.82850
    2943      444        1     0.00000   33.00157    8.28358   11.82298
    2944      444        1     0.00000   32.99578   21.42043   24.97824
    2945      444        1     0.00000   34.56359   24.97166   19.87102
    2946      444        1     0.00000   34.55203   11.83350    6.71498
    2947      444        1     0.00000   47.71096   24.97929    6.72313
    2948      444        1     0.00000   47.71412   11.82929   19.85604
    2949      444        1     0.00000   44.30589   24.97429    6.43265
    2950      444        1     0.00000   44.29380   11.82956   19.58554
    2951      444        1     0.00000   31.16562   24.96667   19.56530
    2952      444        1     0.00000   31.15642   11.82219    6.44132
    2953      444        1     0.00000   44.28985    1.31177   19.86235
    2954      444        1     0.00000   44.29459   14.45756    6.72182
    2955      444        1     0.00000   31.15379    1.31650    6.72182
    2956      444        1     0.00000   31.15353   14.46465   19.85341
    2957      444        1     0.00000   34.55912    1.32570    6.43554
    2958      444        1     0.00000   34.56386   14.46465   19.56871
    2959      444        1     0.00000   47.70439    1.31939   19.58948
    2960      444        1     0.00000   47.70728   14.45782    6.43843
    2961      444        1     0.00000   51.24852    6.42897   18.00274
    2962      444        1     0.00000   51.23538   19.58186    4.85459
    2963      444        1     0.00000   38.10615    6.43738    4.86826
    2964      444        1     0.00000   38.09905   19.58580   17.99512
    2965      444        1     0.00000   51.23959   19.84474    8.28595
    2966      444        1     0.00000   51.25247    6.71288   21.41517
    2967      444        1     0.00000   38.09511   19.84132   21.42858
    2968      444        1     0.00000   38.10825    6.72392    8.27543
    2969      444        1     0.00000   27.61623    6.43028    8.26991
    2970      444        1     0.00000   27.61281   19.58002   21.41307
    2971      444        1     0.00000   40.75518    6.43133   21.41754
    2972      444        1     0.00000   40.75965   19.58081    8.27464
    2973      444        1     0.00000   27.61360   19.85814   17.99643
    2974      444        1     0.00000   27.61071    6.71551    4.86536
    2975      444        1     0.00000   40.76123   19.86051    4.85958
    2976      444        1     0.00000   40.75518    6.72339   18.01168
    2977      444        1     0.00000   44.31903   19.89048    1.30887
    2978      444        1     0.00000   44.30642    6.72550   14.47464
    2979      444        1     0.00000   31.16851   19.86813   14.45493
    2980      444        1     0.00000   31.15589    6.73023    1.31650
    2981      444        1     0.00000   34.55439    6.43554    1.32360
    2982      444        1     0.00000   34.55518   19.56056   14.45309
    2983      444        1     0.00000   47.69440    6.41714   14.46833
    2984      444        1     0.00000   47.68888   19.54532    1.32202
    2985      444        1     0.00000   34.55650   19.85183   24.97166
    2986      444        1     0.00000   34.56543    6.72076   11.82088
    2987      444        1     0.00000   47.69230   19.87497   11.82903
    2988      444        1     0.00000   47.70386    6.71551   24.96299
    2989      444        1     0.00000   44.29879    6.42923   24.96273
    2990      444        1     0.00000   44.30747   19.56293   11.82771
    2991      444        1     0.00000   31.15747    6.43160   11.82219
    2992      444        1     0.00000   31.15800   19.56530   24.97193
    2993      444        1     0.00000   27.61360   18.01562   19.85104
    2994      444        1     0.00000   27.61491    4.86484    6.70867
    2995      444        1     0.00000   40.75991   18.01641    6.71183
    2996      444        1     0.00000   40.75466    4.86799   19.85341
    2997      444        1     0.00000   27.61123    8.28043    6.42792
    2998      444        1     0.00000   27.61202   21.42148   19.55951
    2999      444        1     0.00000   40.75387    8.28489   19.57712
    3000      444        1     0.00000   40.75860   21.42306    6.42450
    3001      444        1     0.00000   51.24879    8.27596   19.85078
    3002      444        1     0.00000   51.24169   21.40887    6.72260
    3003      444        1     0.00000   38.11062    8.28805    6.71262
    3004      444        1     0.00000   38.09774   21.40781   19.86839
    3005      444        1     0.00000   51.23959   18.01746    6.41740
    3006      444        1     0.00000   51.25247    4.86852   19.56924
    3007      444        1     0.00000   38.10168   18.01983   19.55662
    3008      444        1     0.00000   38.10457    4.87404    6.43239
    3009      444        1     0.00000   46.14210    1.31597   18.02456
    3010      444        1     0.00000   46.14105   14.45335    4.87693
    3011      444        1     0.00000   32.99631    1.32544    4.87141
    3012      444        1     0.00000   33.00078   14.46308   18.00485
    3013      444        1     0.00000   32.71608    1.31466    8.28673
    3014      444        1     0.00000   32.71713   14.46334   21.41702
    3015      444        1     0.00000   45.85109    1.31150   21.42858
    3016      444        1     0.00000   45.85845   14.45835    8.28542
    3017      444        1     0.00000   46.14788   24.97929    8.28726
    3018      444        1     0.00000   46.15288   11.82929   21.42201
    3019      444        1     0.00000   32.99578   24.97166   21.43016
    3020      444        1     0.00000   33.00656   11.82877    8.29383
    3021      444        1     0.00000   32.73343   24.96720   18.00563
    3022      444        1     0.00000   32.71030   11.83113    4.87036
    3023      444        1     0.00000   45.87028   24.97692    4.87010
    3024      444        1     0.00000   45.85635   11.83297   18.02114
    3025      444        1     0.00000   46.15971   18.03508   24.95484
    3026      444        1     0.00000   46.14867    4.88140   11.82509
    3027      444        1     0.00000   33.01655   18.02325   11.81273
    3028      444        1     0.00000   33.00761    4.87930   24.96956
    3029      444        1     0.00000   32.70898    8.27675   24.96246
    3030      444        1     0.00000   32.70451   21.40860   11.81299
    3031      444        1     0.00000   45.84583    8.27096   11.83402
    3032      444        1     0.00000   45.83926   21.38862   24.96746
    3033      444        1     0.00000   46.14657    8.27517    1.31781
    3034      444        1     0.00000   46.15130   21.40992   14.46886
    3035      444        1     0.00000   33.00420    8.27753   14.46387
    3036      444        1     0.00000   33.00183   21.41149    1.32806
    3037      444        1     0.00000   32.71161   18.01142    1.33175
    3038      444        1     0.00000   32.71923    4.86694   14.46281
    3039      444        1     0.00000   45.84452   18.02561   14.46833
    3040      444        1     0.00000   45.85582    4.87088    1.31913
    3041      444        1     0.00000   44.29643    1.33148    6.43738
    3042      444        1     0.00000   44.30563   14.47096   19.57371
    3043      444        1     0.00000   31.14906    1.32018   19.57581
    3044      444        1     0.00000   31.15405   14.47070    6.44316
    3045      444        1     0.00000   34.56911    1.32649   19.85735
    3046      444        1     0.00000   34.55045   14.46465    6.71156
    3047      444        1     0.00000   47.71096    1.33227    6.72155
    3048      444        1     0.00000   47.70860   14.46886   19.86577
    3049      444        1     0.00000   34.56780   24.97088    6.43107
    3050      444        1     0.00000   34.56780   11.82351   19.57055
    3051      444        1     0.00000   47.70071   24.96273   19.57686
    3052      444        1     0.00000   47.70702   11.81589    6.43764
    3053      444        1     0.00000   44.29958   24.95747   19.86839
    3054      444        1     0.00000   44.29616   11.81904    6.72628
    3055      444        1     0.00000   31.15405   24.96325    6.70920
    3056      444        1     0.00000   31.15353   11.82246   19.85157
    3057      444        1     0.00000   27.59415   19.86419    8.26492
    3058      444        1     0.00000   27.60492    6.71708   21.41071
    3059      444        1     0.00000   40.73520   19.86524   21.40676
    3060      444        1     0.00000   40.74835    6.71288    8.27990
    3061      444        1     0.00000   27.60440    6.42976   18.00169
    3062      444        1     0.00000   27.58968   19.56030    4.87115
    3063      444        1     0.00000   40.74835    6.43659    4.86458
    3064      444        1     0.00000   40.74046   19.55951   18.02062
    3065      444        1     0.00000   51.25851   19.86550   18.00669
    3066      444        1     0.00000   51.25720    6.70946    4.86379
    3067      444        1     0.00000   38.11772   19.86682    4.86221
    3068      444        1     0.00000   38.11456    6.71551   18.00537
    3069      444        1     0.00000   51.26325    6.43896    8.28253
    3070      444        1     0.00000   51.26193   19.57555   21.41176
    3071      444        1     0.00000   38.11483    6.43764   21.42332
    3072      444        1     0.00000   38.11877   19.56924    8.26308
    3073      444        2     0.00000   33.61276    7.33748   -0.00105
    3074      444        2     0.00000   33.61854   20.47249   13.13343
    3075      444        2     0.00000   46.75172    7.32644   13.15078
    3076      444        2     0.00000   46.76433   20.46592    0.00184
    3077      444        2     0.00000   45.23885   18.96278   -0.01262
    3078      444        2     0.00000   45.24174    5.81725   13.14973
    3079      444        2     0.00000   32.10883   18.96278   13.13449
    3080      444        2     0.00000   32.10436    5.82776   -0.00079
    3081      444        2     0.00000   45.24700    7.32749   -0.00368
    3082      444        2     0.00000   45.24700   20.46881   13.14816
    3083      444        2     0.00000   32.10673    7.32880   13.14316
    3084      444        2     0.00000   32.10436   20.46460    0.00683
    3085      444        2     0.00000   33.61039   18.95515    0.00789
    3086      444        2     0.00000   33.61723    5.81935   13.14158
    3087      444        2     0.00000   46.75750   18.96120   13.14842
    3088      444        2     0.00000   46.75671    5.81646   -0.00289
    3089      444        2     0.00000   26.29368    7.32802    7.32302
    3090      444        2     0.00000   26.29184   20.46934   20.45803
    3091      444        2     0.00000   39.43422    7.31960   20.45856
    3092      444        2     0.00000   39.43842   20.46934    7.31724
    3093      444        2     0.00000   26.29184   18.96304   18.95095
    3094      444        2     0.00000   26.29211    5.81751    5.81646
    3095      444        2     0.00000   39.43842   18.96199    5.80673
    3096      444        2     0.00000   39.43422    5.81357   18.95068
    3097      444        2     0.00000   26.27292   18.95568    7.32617
    3098      444        2     0.00000   26.28475    5.82303   20.45961
    3099      444        2     0.00000   39.41897   18.96015   20.46487
    3100      444        2     0.00000   39.42659    5.82330    7.32644
    3101      444        2     0.00000   26.28291    7.33222   18.94674
    3102      444        2     0.00000   26.27160   20.46539    5.81620
    3103      444        2     0.00000   39.42948    7.33459    5.81620
    3104      444        2     0.00000   39.41976   20.47091   18.95647
    3105      444        2     0.00000   33.61329   -0.00079    7.33064
    3106      444        2     0.00000   33.61329   13.14316   20.46434
    3107      444        2     0.00000   46.75487   -0.00657   20.48222
    3108      444        2     0.00000   46.75960   13.13764    7.33906
    3109      444        2     0.00000   45.24542   -0.00710   18.97093
    3110      444        2     0.00000   45.24857   13.13685    5.83066
    3111      444        2     0.00000   32.10462    0.00026    5.81988
    3112      444        2     0.00000   32.10278   13.14290   18.95331
    3113      444        2     0.00000   33.62012    0.00263   18.96225
    3114      444        2     0.00000   33.57806   13.14868    5.84590
    3115      444        2     0.00000   46.75645    0.01130    5.83066
    3116      444        2     0.00000   46.75566   13.15052   18.97014
    3117      444        2     0.00000   45.24516    0.01104    7.33958
    3118      444        2     0.00000   45.24700   13.15000   20.48038
    3119      444        2     0.00000   32.10620    0.00210   20.46907
    3120      444        2     0.00000   32.08333   13.14947    7.36981
    3121      444        3     0.00000   34.77653    4.66794   23.36179
    3122      444        3     0.00000   34.09725    5.35195   24.49323
    3123      444        3     0.00000   34.78415   17.81216   10.20417
    3124      444        3     0.00000   34.10618   18.49669   11.33587
    3125      444        3     0.00000   44.07902   21.60182   23.35075
    3126      444        3     0.00000   44.74884   20.91939   24.48560
    3127      444        3     0.00000   44.07876    8.48258   10.22810
    3128      444        3     0.00000   44.75594    7.79857   11.35821
    3129      444        3     0.00000   30.94217    8.48258   23.35233
    3130      444        3     0.00000   31.62040    7.80172   24.48560
    3131      444        3     0.00000   44.08717    4.66637    2.92873
    3132      444        3     0.00000   44.76645    5.34564    1.79520
    3133      444        3     0.00000   44.07902   17.81216   16.07584
    3134      444        3     0.00000   44.75462   18.49801   14.94415
    3135      444        3     0.00000   30.94638    4.65900   16.07032
    3136      444        3     0.00000   31.62855    5.33960   14.93862
    3137      444        3     0.00000   34.77390   21.62653    2.93163
    3138      444        3     0.00000   34.09304   20.94042    1.80256
    3139      444        3     0.00000   34.77705    8.48652   16.06743
    3140      444        3     0.00000   34.09541    7.80514   14.93784
    3141      444        3     0.00000   49.64628    8.47890    4.66006
    3142      444        3     0.00000   50.78113    7.79962    5.33697
    3143      444        3     0.00000   36.50969    8.48731   17.79717
    3144      444        3     0.00000   37.63954    7.80567   18.47961
    3145      444        3     0.00000   49.65679   17.80585   21.62653
    3146      444        3     0.00000   50.78533   18.48539   20.94042
    3147      444        3     0.00000   49.65127    4.67162    8.49047
    3148      444        3     0.00000   50.78586    5.34854    7.81119
    3149      444        3     0.00000   36.50942   17.80322    8.46917
    3150      444        3     0.00000   37.64112   18.48066    7.78779
    3151      444        3     0.00000   29.20060   17.79454    4.66190
    3152      444        3     0.00000   28.06759   18.47172    5.34459
    3153      444        3     0.00000   42.35322   17.79875   17.81189
    3154      444        3     0.00000   41.21864   18.47146   18.49511
    3155      444        3     0.00000   42.35585    4.66584    4.65927
    3156      444        3     0.00000   41.22311    5.34591    5.33828
    3157      444        3     0.00000   29.21401    8.48495   21.61812
    3158      444        3     0.00000   28.08205    7.80619   20.93674
    3159      444        3     0.00000   42.35401    8.48389    8.49257
    3160      444        3     0.00000   41.22574    7.80304    7.80803
    3161      444        3     0.00000   30.94349   23.35233    8.47706
    3162      444        3     0.00000   31.62645   24.48481    7.79883
    3163      444        3     0.00000   30.94664   10.21443   21.62153
    3164      444        3     0.00000   31.62776   11.34586   20.94120
    3165      444        3     0.00000   47.90865   23.35470   17.80769
    3166      444        3     0.00000   47.22700   24.48639   18.48723
    3167      444        3     0.00000   47.91338   10.20891    4.66479
    3168      444        3     0.00000   47.23226   11.33981    5.34801
    3169      444        3     0.00000   34.77758   23.36521    4.65769
    3170      444        3     0.00000   34.09593   24.49612    5.33960
    3171      444        3     0.00000   30.94428    2.92847   17.80348
    3172      444        3     0.00000   31.62356    1.79652   18.48618
    3173      444        3     0.00000   30.93744   16.07006    4.66321
    3174      444        3     0.00000   31.62277   14.94415    5.34959
    3175      444        3     0.00000   47.91601    2.94424    8.48836
    3176      444        3     0.00000   47.23673    1.81045    7.81014
    3177      444        3     0.00000   47.92179   16.07663   21.63547
    3178      444        3     0.00000   47.23699   14.94520   20.95619
    3179      444        3     0.00000   34.77784   16.07321    8.47890
    3180      444        3     0.00000   34.09173   14.94204    7.80698
    3181      444        3     0.00000   30.94559    8.49783    2.92321
    3182      444        3     0.00000   31.62855    7.82012    1.79205
    3183      444        3     0.00000   30.96057   21.63336   16.06270
    3184      444        3     0.00000   31.64275   20.95698   14.93100
    3185      444        3     0.00000   47.89655   17.77798    2.92216
    3186      444        3     0.00000   47.20939   18.45700    1.79152
    3187      444        3     0.00000   47.90339    4.65138   16.07821
    3188      444        3     0.00000   47.22122    5.32751   14.94441
    3189      444        3     0.00000   34.75655    4.67241    2.93899
    3190      444        3     0.00000   34.07911    5.34722    1.80177
    3191      444        3     0.00000   30.94769   17.80006   23.36022
    3192      444        3     0.00000   31.62908   18.47461   24.49612
    3193      444        3     0.00000   30.94980    4.66032   10.21574
    3194      444        3     0.00000   31.63144    5.34196   11.34586
    3195      444        3     0.00000   47.91154    8.48363   23.35338
    3196      444        3     0.00000   47.23042    7.80514   24.48613
    3197      444        3     0.00000   47.90313   21.63941   10.22179
    3198      444        3     0.00000   47.21806   20.96355   11.35296
    3199      444        3     0.00000   34.77469    8.49415   10.21600
    3200      444        3     0.00000   34.09225    7.81171   11.34665
    3201      444        3     0.00000   34.76601   23.36127   21.63941
    3202      444        3     0.00000   34.08726   24.49533   20.95961
    3203      444        3     0.00000   34.77521   10.22652    8.48521
    3204      444        3     0.00000   34.09278   11.35821    7.81040
    3205      444        3     0.00000   44.10111   23.36495    4.66505
    3206      444        3     0.00000   44.78091   24.49848    5.34354
    3207      444        3     0.00000   44.08901   10.22678   17.80979
    3208      444        3     0.00000   44.76698   11.35637   18.49406
    3209      444        3     0.00000   30.94428   10.22126    4.65953
    3210      444        3     0.00000   31.62540   11.34980    5.34643
    3211      444        3     0.00000   44.08639    2.92505   21.62784
    3212      444        3     0.00000   44.76330    1.78915   20.95172
    3213      444        3     0.00000   44.08954   16.06638    8.49073
    3214      444        3     0.00000   44.76803   14.93389    7.81145
    3215      444        3     0.00000   30.94454    2.92111    8.49309
    3216      444        3     0.00000   31.62592    1.79021    7.81329
    3217      444        3     0.00000   34.75786    2.94346    4.67241
    3218      444        3     0.00000   34.08358    1.80466    5.34775
    3219      444        3     0.00000   34.77127   16.06900   17.79481
    3220      444        3     0.00000   34.09094   14.93889   18.47776
    3221      444        3     0.00000   49.63892    4.65795   17.80585
    3222      444        3     0.00000   50.77376    5.33986   18.48013
    3223      444        3     0.00000   36.49129    4.67215    4.66715
    3224      444        3     0.00000   37.62771    5.34906    5.34328
    3225      444        3     0.00000   49.63629   21.62522    8.49204
    3226      444        3     0.00000   50.76535   20.93674    7.81276
    3227      444        3     0.00000   36.49076   21.62101   21.63626
    3228      444        3     0.00000   37.62061   20.93384   20.95724
    3229      444        3     0.00000   36.50522    8.49625    8.48468
    3230      444        3     0.00000   37.63455    7.81513    7.80277
    3231      444        3     0.00000   29.22005    4.65822    8.48284
    3232      444        3     0.00000   28.09125    5.33934    7.79831
    3233      444        3     0.00000   42.36137    4.66058   21.62390
    3234      444        3     0.00000   41.23099    5.34170   20.94357
    3235      444        3     0.00000   29.22505   21.63021   17.79112
    3236      444        3     0.00000   28.08994   20.94856   18.46988
    3237      444        3     0.00000   29.21532    8.48915    4.65638
    3238      444        3     0.00000   28.08573    7.80645    5.33776
    3239      444        3     0.00000   42.37241   21.63047    4.65927
    3240      444        3     0.00000   41.23730   20.94988    5.33566
    3241      444        3     0.00000   44.10689   21.64362    2.92584
    3242      444        3     0.00000   44.79695   20.97433    1.79152
    3243      444        3     0.00000   44.09664    8.49651   16.07873
    3244      444        3     0.00000   44.78065    7.81539   14.94940
    3245      444        3     0.00000   34.76470   17.79481   16.06007
    3246      444        3     0.00000   34.08095   18.47146   14.92916
    3247      444        3     0.00000   34.76259   21.62758   23.36889
    3248      444        3     0.00000   34.08384   20.94515   24.49980
    3249      444        3     0.00000   44.09164    4.66032   23.35443
    3250      444        3     0.00000   44.77224    5.33934   24.48665
    3251      444        3     0.00000   44.09874   17.79901   10.21784
    3252      444        3     0.00000   44.78170   18.47435   11.35085
    3253      444        3     0.00000   29.22005   17.80847   21.62364
    3254      444        3     0.00000   28.08888   18.48959   20.94120
    3255      444        3     0.00000   42.36716   17.80742    8.48468
    3256      444        3     0.00000   41.23599   18.49012    7.80225
    3257      444        3     0.00000   42.36058    8.49493   17.80585
    3258      444        3     0.00000   41.22942    7.81382   18.48591
    3259      444        3     0.00000   49.64286    8.48153   21.62232
    3260      444        3     0.00000   50.77455    7.80172   20.94147
    3261      444        3     0.00000   49.63077   17.80059    4.65348
    3262      444        3     0.00000   50.76141   18.49012    5.32856
    3263      444        3     0.00000   36.49759   17.80585   17.78850
    3264      444        3     0.00000   37.62587   18.49327   18.46699
    3265      444        3     0.00000   47.90602    2.92900   17.81794
    3266      444        3     0.00000   47.22963    1.79546   18.49958
    3267      444        3     0.00000   47.90812   16.05954    4.66242
    3268      444        3     0.00000   47.23147   14.93048    5.34801
    3269      444        3     0.00000   30.94743   16.07295   21.62495
    3270      444        3     0.00000   31.62724   14.94020   20.94383
    3271      444        3     0.00000   47.91811   23.37152    8.49415
    3272      444        3     0.00000   47.23857   24.50400    7.81355
    3273      444        3     0.00000   47.91785   10.21758   21.62469
    3274      444        3     0.00000   47.24146   11.35269   20.94620
    3275      444        3     0.00000   30.96136   23.35943   17.79559
    3276      444        3     0.00000   31.64222   24.49060   18.47671
    3277      444        3     0.00000   47.92941   17.81741   23.35785
    3278      444        3     0.00000   47.25381   18.50458   24.48692
    3279      444        3     0.00000   47.91154    4.68240   10.21153
    3280      444        3     0.00000   47.23594    5.35853   11.34770
    3281      444        3     0.00000   30.93481   21.61917   10.20759
    3282      444        3     0.00000   31.61409   20.93489   11.33850
    3283      444        3     0.00000   47.91443    8.48021    2.92952
    3284      444        3     0.00000   47.23568    7.80067    1.79520
    3285      444        3     0.00000   47.91653   21.62259   16.07663
    3286      444        3     0.00000   47.24120   20.93779   14.94493
    3287      444        3     0.00000   30.93429   17.80111    2.93189
    3288      444        3     0.00000   31.61909   18.48486    1.80388
    3289      444        3     0.00000   44.09112    2.93846    4.66452
    3290      444        3     0.00000   44.77224    1.80808    5.34827
    3291      444        3     0.00000   44.09296   16.07715   17.80453
    3292      444        3     0.00000   44.77855   14.94704   18.48355
    3293      444        3     0.00000   34.77311    2.93610   21.62863
    3294      444        3     0.00000   34.09304    1.80361   20.94620
    3295      444        3     0.00000   34.77758   10.21784   17.79743
    3296      444        3     0.00000   34.09541   11.34770   18.47987
    3297      444        3     0.00000   44.09112   23.34103   21.62916
    3298      444        3     0.00000   44.77303   24.47719   20.95645
    3299      444        3     0.00000   44.08507   10.21495    8.49835
    3300      444        3     0.00000   44.76882   11.34375    7.81671
    3301      444        3     0.00000   29.20428   21.62916    8.47443
    3302      444        3     0.00000   28.07101   20.95303    7.79094
    3303      444        3     0.00000   42.35086   21.62075   21.61785
    3304      444        3     0.00000   41.21548   20.95251   20.93358
    3305      444        3     0.00000   29.21295    4.65979   17.79927
    3306      444        3     0.00000   28.08073    5.34091   18.47776
    3307      444        3     0.00000   49.64733   21.63179   17.80558
    3308      444        3     0.00000   50.78165   20.95409   18.48302
    3309      444        3     0.00000   36.50837   21.63494    4.65927
    3310      444        3     0.00000   37.64112   20.95540    5.33855
    3311      444        3     0.00000   36.50785    4.66479   21.63231
    3312      444        3     0.00000   37.63796    5.34748   20.95093
    3313      444        3     0.00000   35.93162    5.22577   22.78556
    3314      444        4     0.00000   36.35459    6.12850   23.20827
    3315      444        3     0.00000   35.93819   18.36683    9.62453
    3316      444        4     0.00000   36.36169   19.27140   10.04277
    3317      444        3     0.00000   42.92472   21.04820   22.76769
    3318      444        4     0.00000   42.49150   20.14757   23.18777
    3319      444        3     0.00000   42.92788    7.92265    9.64713
    3320      444        4     0.00000   42.50438    7.01940   10.06800
    3321      444        3     0.00000   29.77893   21.06476    9.62899
    3322      444        4     0.00000   29.35228   20.16361   10.05249
    3323      444        3     0.00000   42.93287    5.22630    3.50549
    3324      444        4     0.00000   42.50964    6.12876    3.08226
    3325      444        3     0.00000   42.92551   18.36578   16.65838
    3326      444        4     0.00000   42.49860   19.26824   16.23830
    3327      444        3     0.00000   29.77998   18.35947    3.51101
    3328      444        4     0.00000   29.35570   19.26167    3.08988
    3329      444        3     0.00000   35.92636   21.06765    3.51127
    3330      444        4     0.00000   36.34591   20.16072    3.09409
    3331      444        3     0.00000   35.93162    7.92659   16.64392
    3332      444        4     0.00000   36.35485    7.02518   16.21937
    3333      444        3     0.00000   49.06715    9.63005    5.22446
    3334      444        4     0.00000   49.48986   10.05118    6.12824
    3335      444        3     0.00000   49.06453   22.78162   18.36841
    3336      444        4     0.00000   49.48566   23.20591   19.27140
    3337      444        3     0.00000   35.93162    9.64030   18.35763
    3338      444        4     0.00000   36.35249   10.06222   19.26141
    3339      444        3     0.00000   49.07346   16.65338   21.07001
    3340      444        4     0.00000   49.48750   16.23304   20.16387
    3341      444        3     0.00000   49.07478    3.51601    7.93264
    3342      444        4     0.00000   49.50196    3.08725    7.03438
    3343      444        3     0.00000   35.92899    3.51180   21.07080
    3344      444        4     0.00000   36.35143    3.08909   20.16781
    3345      444        3     0.00000   29.78104   16.64287    5.22130
    3346      444        4     0.00000   29.35964   16.21832    6.12298
    3347      444        3     0.00000   29.79103    3.50759   18.36262
    3348      444        4     0.00000   29.36937    3.08830   19.26772
    3349      444        3     0.00000   29.79365    9.63767   21.05897
    3350      444        4     0.00000   29.37200   10.06222   20.15625
    3351      444        3     0.00000   29.78919   22.77873    7.91424
    3352      444        4     0.00000   29.36937   23.20275    7.01098
    3353      444        3     0.00000   31.50105   22.77137    9.63057
    3354      444        4     0.00000   32.40588   23.19013   10.05328
    3355      444        3     0.00000   44.64842   22.75244   22.77820
    3356      444        4     0.00000   45.54931   23.16910   23.20827
    3357      444        3     0.00000   44.64290    9.63609    9.65239
    3358      444        4     0.00000   45.54668   10.05670   10.07589
    3359      444        3     0.00000   47.34950   22.77321   16.65522
    3360      444        4     0.00000   46.44441   23.19224   16.23278
    3361      444        3     0.00000   47.35292    9.63241    3.51022
    3362      444        4     0.00000   46.44914   10.05512    3.08935
    3363      444        3     0.00000   34.21344   22.78162    3.50786
    3364      444        4     0.00000   33.30887   23.20196    3.08699
    3365      444        3     0.00000   31.50684    3.50654   16.65049
    3366      444        4     0.00000   32.41061    3.08410   16.22910
    3367      444        3     0.00000   44.65026    3.51496    3.50917
    3368      444        4     0.00000   45.55351    3.09277    3.08646
    3369      444        3     0.00000   47.34845    3.53046    9.63346
    3370      444        4     0.00000   46.44126    3.11275   10.05223
    3371      444        3     0.00000   34.21212    3.51653   22.78083
    3372      444        4     0.00000   33.30651    3.09698   23.19828
    3373      444        3     0.00000   31.50237    9.65187    3.50076
    3374      444        4     0.00000   32.40536   10.07615    3.08068
    3375      444        3     0.00000   44.65473    9.64976   16.65759
    3376      444        4     0.00000   45.55930   10.07168   16.23698
    3377      444        3     0.00000   47.34398   16.62473    3.50497
    3378      444        4     0.00000   46.44126   16.19755    3.08725
    3379      444        3     0.00000   34.20766   16.64234   16.64129
    3380      444        4     0.00000   33.30493   16.21753   16.22095
    3381      444        3     0.00000   34.19320    3.52337    3.52232
    3382      444        4     0.00000   33.29100    3.09908    3.09987
    3383      444        3     0.00000   31.50631   16.64708   22.78083
    3384      444        4     0.00000   32.40851   16.22331   23.20328
    3385      444        3     0.00000   31.50552    3.50102    9.64529
    3386      444        4     0.00000   32.40536    3.07595   10.07168
    3387      444        3     0.00000   44.65342   16.64287    9.64266
    3388      444        4     0.00000   45.55430   16.21674   10.06643
    3389      444        3     0.00000   47.35371    9.63846   22.77610
    3390      444        4     0.00000   46.45019   10.06091   23.19723
    3391      444        3     0.00000   34.21107    9.64372    9.63452
    3392      444        4     0.00000   33.30309   10.06012   10.05197
    3393      444        3     0.00000   35.91663   22.77794   21.07606
    3394      444        4     0.00000   36.33934   23.19907   20.17202
    3395      444        3     0.00000   35.92531    9.64740    7.92054
    3396      444        4     0.00000   36.34355   10.06511    7.01177
    3397      444        3     0.00000   42.94707   22.78451    5.22393
    3398      444        4     0.00000   42.51989   23.20880    6.12534
    3399      444        3     0.00000   42.93550    9.64845   18.36736
    3400      444        4     0.00000   42.51016   10.07221   19.26877
    3401      444        3     0.00000   29.79024    9.64319    5.21710
    3402      444        4     0.00000   29.36805   10.06511    6.12061
    3403      444        3     0.00000   42.93471    3.50391   21.06607
    3404      444        4     0.00000   42.50859    3.07884   20.16624
    3405      444        3     0.00000   42.93866   16.64839    7.92869
    3406      444        4     0.00000   42.51332   16.22489    7.02754
    3407      444        3     0.00000   29.79287    3.49945    7.92922
    3408      444        4     0.00000   29.36753    3.07306    7.02912
    3409      444        3     0.00000   35.91374    3.51942    5.22971
    3410      444        4     0.00000   36.33934    3.09566    6.13086
    3411      444        3     0.00000   35.92347   16.65181   18.35342
    3412      444        4     0.00000   36.34723   16.23330   19.25799
    3413      444        3     0.00000   49.05822    5.21447   16.65207
    3414      444        4     0.00000   49.48093    6.11562   16.22515
    3415      444        3     0.00000   49.04902   18.34843    3.49708
    3416      444        4     0.00000   49.46279   19.25457    3.07358
    3417      444        3     0.00000   35.91164    5.23287    3.51443
    3418      444        4     0.00000   36.33776    6.13218    3.08751
    3419      444        3     0.00000   49.04875   21.06581    9.64030
    3420      444        4     0.00000   49.45674   20.15309   10.05433
    3421      444        3     0.00000   49.06321    7.92028   22.77452
    3422      444        4     0.00000   49.48434    7.01624   23.19671
    3423      444        3     0.00000   35.93135    7.93684    9.64135
    3424      444        4     0.00000   36.35406    7.03359   10.06511
    3425      444        3     0.00000   29.80101    5.22419    9.63215
    3426      444        4     0.00000   29.38619    6.13481   10.04461
    3427      444        3     0.00000   29.79628   18.36578   22.78031
    3428      444        4     0.00000   29.37384   19.26850   23.20433
    3429      444        3     0.00000   29.80522   21.07185   16.63761
    3430      444        4     0.00000   29.38277   20.16965   16.21280
    3431      444        3     0.00000   29.79760    7.92975    3.50497
    3432      444        4     0.00000   29.37962    7.02544    3.08278
    3433      444        3     0.00000   42.95522   21.07238    3.50497
    3434      444        4     0.00000   42.53803   20.16361    3.08594
    3435      444        3     0.00000   42.94155    7.93527   16.65338
    3436      444        4     0.00000   42.51910    7.03385   16.22857
    3437      444        3     0.00000   35.91742   18.36105   16.63472
    3438      444        4     0.00000   36.33724   19.26430   16.20991
    3439      444        3     0.00000   35.91295   21.06397   22.79003
    3440      444        4     0.00000   36.33435   20.16150   23.21353
    3441      444        3     0.00000   42.94076    5.22367   22.77479
    3442      444        4     0.00000   42.52094    6.12981   23.19434
    3443      444        3     0.00000   42.95049   18.36841    9.63557
    3444      444        4     0.00000   42.53330   19.27508   10.05591
    3445      444        3     0.00000   29.79786   16.65575   21.06213
    3446      444        4     0.00000   29.37463   16.23409   20.15914
    3447      444        3     0.00000   29.80575   22.78162   18.35447
    3448      444        4     0.00000   29.38409   23.20301   19.25799
    3449      444        3     0.00000   49.06821    9.63636   21.06265
    3450      444        4     0.00000   49.49039   10.05775   20.15888
    3451      444        3     0.00000   49.06873   22.78609    7.93343
    3452      444        4     0.00000   49.49407   23.20643    7.03070
    3453      444        3     0.00000   49.05716   16.64865    5.22183
    3454      444        4     0.00000   49.48513   16.22989    6.12429
    3455      444        3     0.00000   49.06032    3.50891   18.37445
    3456      444        4     0.00000   49.48461    3.09014   19.27876
    3457      444        3     0.00000   47.34293    3.50234   16.66337
    3458      444        4     0.00000   46.43915    3.07831   16.24382
    3459      444        3     0.00000   44.64974    3.50523   22.77820
    3460      444        4     0.00000   45.55115    3.08042   23.20091
    3461      444        3     0.00000   47.35345   22.79818    9.64740
    3462      444        4     0.00000   46.45545   23.22878   10.07247
    3463      444        3     0.00000   34.20319   22.78320   22.79240
    3464      444        4     0.00000   33.30125   23.20880   23.21511
    3465      444        3     0.00000   31.52287   22.78346   16.64287
    3466      444        4     0.00000   32.42796   23.20407   16.22226
    3467      444        3     0.00000   44.66314   22.79240    3.51127
    3468      444        4     0.00000   45.56639   23.21511    3.09277
    3469      444        3     0.00000   47.36554   16.66022   22.78740
    3470      444        4     0.00000   46.46518   16.23725   23.21511
    3471      444        3     0.00000   34.21949   16.65891    9.62952
    3472      444        4     0.00000   33.31571   16.24172   10.05486
    3473      444        3     0.00000   31.50526    9.63557   22.77531
    3474      444        4     0.00000   32.40983   10.05565   23.19776
    3475      444        3     0.00000   34.21607    9.63977   16.64445
    3476      444        4     0.00000   33.31229   10.06117   16.22121
    3477      444        3     0.00000   31.49264   16.64471    3.50523
    3478      444        4     0.00000   32.39326   16.22253    3.07910
    3479      444        3     0.00000   44.64711   16.65917   16.64997
    3480      444        4     0.00000   45.55010   16.24014   16.22410
    3481      444        3     0.00000   42.93655    3.51548    5.22341
    3482      444        4     0.00000   42.51489    3.09435    6.12745
    3483      444        3     0.00000   42.93813   16.64839   18.36920
    3484      444        4     0.00000   42.51779   16.22174   19.27140
    3485      444        3     0.00000   35.92688   16.65049    7.91003
    3486      444        4     0.00000   36.34644   16.22647    7.00546
    3487      444        3     0.00000   35.93398   22.79187    5.21605
    3488      444        4     0.00000   36.35827   23.21695    6.11772
    3489      444        3     0.00000   42.93524   22.77321   21.06423
    3490      444        4     0.00000   42.52147   23.19697   20.15756
    3491      444        3     0.00000   42.93287    9.63793    7.93500
    3492      444        4     0.00000   42.51174   10.06196    7.03201
    3493      444        3     0.00000   29.78997    7.92291   22.77216
    3494      444        4     0.00000   29.36726    7.01913   23.19250
    3495      444        3     0.00000   29.79181    5.21973   16.64576
    3496      444        4     0.00000   29.36858    6.12193   16.22121
    3497      444        3     0.00000   49.07189   21.06817   16.65338
    3498      444        4     0.00000   49.49722   20.16624   16.23199
    3499      444        3     0.00000   49.06794    7.91923    3.50654
    3500      444        4     0.00000   49.49170    7.01782    3.08199
    3501      444        3     0.00000   49.06794    5.23918    9.63741
    3502      444        4     0.00000   49.49013    6.14322   10.05854
    3503      444        3     0.00000   49.08398   18.37077   22.77978
    3504      444        4     0.00000   49.50984   19.27087   23.20512
    3505      129        5     0.00000   37.35773    9.14766   25.78212
    3506      129        6     0.00000   37.61877   10.10191   25.82865
    3507      129        6     0.00000   38.02545    8.73389   25.17881
    3508      130        5     0.00000   39.32302    2.11276   26.13937
    3509      130        6     0.00000   38.33512    2.09331   26.20641
    3510      130        6     0.00000   39.55383    1.31518   25.59916
    3511      131        5     0.00000   38.96550   10.66158    4.55674
    3512      131        6     0.00000   39.32381   11.47493    4.99391
    3513      131        6     0.00000   37.98128   10.76516    4.60170
    3514      132        5     0.00000   49.27746   17.14208   11.21784
    3515      132        6     0.00000   49.77009   17.93492   11.54985
    3516      132        6     0.00000   48.85633   17.44307   10.37294
    3517      133        5     0.00000   37.73023   21.41859   11.71363
    3518      133        6     0.00000   37.83591   20.44673   11.87372
    3519      133        6     0.00000   37.03518   21.48484   11.01095
    3520      134        5     0.00000   48.83950   25.78974   11.49728
    3521      134        6     0.00000   48.98592   25.60126   10.53593
    3522      134        6     0.00000   48.50118   24.93644   11.86951
    3523      135        5     0.00000   34.06964    0.43533   11.74990
    3524      135        6     0.00000   34.48158    0.52497   12.64632
    3525      135        6     0.00000   33.18400    0.02603   11.92051
    3526      136        5     0.00000   31.72897    1.12328   25.19222
    3527      136        6     0.00000   32.07623    2.03942   25.04501
    3528      136        6     0.00000   32.49237    0.62539   25.58023
    3529      137        5     0.00000   40.50492   17.27983   11.98176
    3530      137        6     0.00000   40.01386   17.77851   12.68260
    3531      137        6     0.00000   41.44761   17.56689   12.08428
    3532      138        5     0.00000   40.32695    8.98520    1.81176
    3533      138        6     0.00000   40.98625    8.25466    1.92480
    3534      138        6     0.00000   40.71391    9.56643    1.10909
    3535      139        5     0.00000   47.23857   15.21991   -0.02865
    3536      139        6     0.00000   47.41785   14.81875    0.85883
    3537      139        6     0.00000   48.05586   15.73804   -0.23948
    3538      140        5     0.00000   46.98988    6.40163   19.91019
    3539      140        6     0.00000   47.95938    6.27860   20.07081
    3540      140        6     0.00000   46.56218    6.18528   20.77717
    3541      141        5     0.00000   52.38127    3.67032   22.31685
    3542      141        6     0.00000   52.95408    3.92557   23.08367
    3543      141        6     0.00000   51.70041    3.06307   22.70223
    3544      142        5     0.00000   40.44972   12.58139   16.90286
    3545      142        6     0.00000   39.94762   13.40630   17.12368
    3546      142        6     0.00000   40.05330   12.26725   16.05113
    3547      143        5     0.00000   49.48355    2.58226   12.09953
    3548      143        6     0.00000   48.54087    2.34015   12.28328
    3549      143        6     0.00000   49.97251    2.29940   12.91235
    3550      144        5     0.00000   36.34302    1.16508    2.35487
    3551      144        6     0.00000   36.20186    0.52891    3.10145
    3552      144        6     0.00000   35.44030    1.30493    1.97212
    3553      145        5     0.00000   51.82607   20.25693   11.57693
    3554      145        6     0.00000   52.61418   20.85445   11.52067
    3555      145        6     0.00000   51.18517   20.74115   12.15684
    3556      146        5     0.00000   40.97574   22.59287   14.85976
    3557      146        6     0.00000   40.56749   21.77532   15.24199
    3558      146        6     0.00000   40.37690   23.32920   15.14367
    3559      147        5     0.00000   34.06281    8.48495    5.18240
    3560      147        6     0.00000   34.80150    8.04751    5.67582
    3561      147        6     0.00000   33.57596    9.00650    5.86956
    3562      148        5     0.00000   43.40579    4.10538   17.58634
    3563      148        6     0.00000   43.23808    4.38351   16.65076
    3564      148        6     0.00000   43.19812    3.13694   17.60106
    3565      149        5     0.00000   48.41548   24.06578   24.10679
    3566      149        6     0.00000   48.21700   23.81132   23.17042
    3567      149        6     0.00000   47.75013   23.57078   24.64832
    3568      150        5     0.00000   52.06818   26.01792   12.02146
    3569      150        6     0.00000   52.58500   25.36756   11.48203
    3570      150        6     0.00000   51.54295   25.46141   12.65026
    3571      151        5     0.00000   32.14064   13.39395   14.86029
    3572      151        6     0.00000   32.32202   12.44495   15.07927
    3573      151        6     0.00000   32.83990   13.63790   14.20256
    3574      152        5     0.00000   36.74891   10.67078   13.24805
    3575      152        6     0.00000   36.16190   10.12978   13.83453
    3576      152        6     0.00000   37.42976   11.05248   13.85793
    3577      153        5     0.00000   51.92675    0.36488    5.16768
    3578      153        6     0.00000   51.35315    0.01262    4.44081
    3579      153        6     0.00000   52.59683    0.93033    4.70659
    3580      154        5     0.00000   43.02041   14.32533   11.57824
    3581      154        6     0.00000   42.81247   13.35714   11.54749
    3582      154        6     0.00000   42.28330   14.75671   11.07667
    3583      155        5     0.00000   40.11350    7.62743   14.35293
    3584      155        6     0.00000   39.66450    8.51018   14.35083
    3585      155        6     0.00000   40.06513    7.31881   13.41288
    3586      156        5     0.00000   28.05970    6.72707   12.87897
    3587      156        6     0.00000   27.62201    5.84301   12.96808
    3588      156        6     0.00000   27.93720    6.97287   11.92708
    3589      157        5     0.00000   45.12581   20.34158   19.27613
    3590      157        6     0.00000   45.91445   20.62680   19.80320
    3591      157        6     0.00000   44.92944   21.11024   18.68307
    3592      158        5     0.00000   37.27335   21.85445    0.41693
    3593      158        6     0.00000   36.53782   21.39520   -0.06151
    3594      158        6     0.00000   36.91110   22.75086    0.63380
    3595      159        5     0.00000   43.02514    4.29807    9.03147
    3596      159        6     0.00000   42.11926    3.89981    9.07800
    3597      159        6     0.00000   43.44417    4.07068    9.90002
    3598      160        5     0.00000   45.91892   13.25462   13.21230
    3599      160        6     0.00000   46.74804   13.36582   12.68207
    3600      160        6     0.00000   45.74778   14.14920   13.60136
    3601      444        1     0.00000   34.57017    6.44343   51.25588
    3602      444        1     0.00000   34.57937   19.58738   38.09932
    3603      444        1     0.00000   47.71122    6.44606   38.11614
    3604      444        1     0.00000   47.73462   19.58922   51.25930
    3605      444        1     0.00000   44.26672   19.83185   51.24484
    3606      444        1     0.00000   44.28170    6.70762   38.12061
    3607      444        1     0.00000   31.14196   19.84395   38.10300
    3608      444        1     0.00000   31.14696    6.71183   51.25063
    3609      444        1     0.00000   44.29301    6.43528   27.60545
    3610      444        1     0.00000   44.28013   19.58843   40.75597
    3611      444        1     0.00000   31.15589    6.43028   40.75124
    3612      444        1     0.00000   31.14564   19.57423   27.61307
    3613      444        1     0.00000   34.56649   19.84973   27.61518
    3614      444        1     0.00000   34.56859    6.71498   40.74993
    3615      444        1     0.00000   47.71701   19.84763   40.75729
    3616      444        1     0.00000   47.70938    6.71078   27.60624
    3617      444        1     0.00000   51.25930    8.27491   32.71293
    3618      444        1     0.00000   51.25878   21.42674   45.86029
    3619      444        1     0.00000   38.11430    8.27727   45.85898
    3620      444        1     0.00000   38.11719   21.42700   32.71713
    3621      444        1     0.00000   51.25851   18.01194   46.13658
    3622      444        1     0.00000   51.26088    4.87246   33.00972
    3623      444        1     0.00000   38.11614   18.00721   32.98501
    3624      444        1     0.00000   38.11325    4.87325   46.14867
    3625      444        1     0.00000   27.59336   17.99801   32.72397
    3626      444        1     0.00000   27.60492    4.86931   45.85635
    3627      444        1     0.00000   40.74230   17.99643   45.87291
    3628      444        1     0.00000   40.74572    4.87194   32.71529
    3629      444        1     0.00000   27.60598    8.28043   46.13448
    3630      444        1     0.00000   27.59546   21.42595   32.98763
    3631      444        1     0.00000   40.75255    8.27780   33.00525
    3632      444        1     0.00000   40.74072   21.43016   46.13211
    3633      444        1     0.00000   32.71582   24.96036   34.56254
    3634      444        1     0.00000   32.71766   11.82167   47.70281
    3635      444        1     0.00000   45.86161   24.95431   47.72095
    3636      444        1     0.00000   45.86056   11.81720   34.57674
    3637      444        1     0.00000   46.13658   24.96141   44.30195
    3638      444        1     0.00000   46.14078   11.81510   31.16483
    3639      444        1     0.00000   33.00551   24.97166   31.15432
    3640      444        1     0.00000   33.00446   11.82193   44.29459
    3641      444        1     0.00000   32.71503    1.32176   44.30273
    3642      444        1     0.00000   32.70714   14.46387   31.16115
    3643      444        1     0.00000   45.86292    1.33201   31.16483
    3644      444        1     0.00000   45.86949   14.47228   44.29853
    3645      444        1     0.00000   46.14631    1.33516   34.57174
    3646      444        1     0.00000   46.14604   14.47096   47.71806
    3647      444        1     0.00000   33.00262    1.32649   47.70570
    3648      444        1     0.00000   33.00577   14.47175   34.58200
    3649      444        1     0.00000   32.71897    8.29383   27.60492
    3650      444        1     0.00000   32.73264   21.43147   40.74230
    3651      444        1     0.00000   45.87186    8.28726   40.76149
    3652      444        1     0.00000   45.89526   21.44304   27.61176
    3653      444        1     0.00000   46.11581   17.99065   27.59835
    3654      444        1     0.00000   46.13053    4.85406   40.75597
    3655      444        1     0.00000   32.99026   17.99801   40.74178
    3656      444        1     0.00000   32.99026    4.87246   27.61123
    3657      444        1     0.00000   32.71634   17.99722   51.26377
    3658      444        1     0.00000   32.72160    4.86852   38.10931
    3659      444        1     0.00000   45.87239   18.00038   38.11483
    3660      444        1     0.00000   45.86134    4.86458   51.25168
    3661      444        1     0.00000   46.14105    8.27990   51.25063
    3662      444        1     0.00000   46.12712   21.43621   38.11640
    3663      444        1     0.00000   33.00157    8.28358   38.11088
    3664      444        1     0.00000   32.99578   21.42043   51.26614
    3665      444        1     0.00000   34.56359   24.97166   46.15892
    3666      444        1     0.00000   34.55203   11.83350   33.00288
    3667      444        1     0.00000   47.71096   24.97929   33.01103
    3668      444        1     0.00000   47.71412   11.82929   46.14394
    3669      444        1     0.00000   44.30589   24.97429   32.72055
    3670      444        1     0.00000   44.29380   11.82956   45.87344
    3671      444        1     0.00000   31.16562   24.96667   45.85320
    3672      444        1     0.00000   31.15642   11.82219   32.72922
    3673      444        1     0.00000   44.28985    1.31177   46.15025
    3674      444        1     0.00000   44.29459   14.45756   33.00972
    3675      444        1     0.00000   31.15379    1.31650   33.00972
    3676      444        1     0.00000   31.15353   14.46465   46.14131
    3677      444        1     0.00000   34.55912    1.32570   32.72344
    3678      444        1     0.00000   34.56386   14.46465   45.85661
    3679      444        1     0.00000   47.70439    1.31939   45.87738
    3680      444        1     0.00000   47.70728   14.45782   32.72633
    3681      444        1     0.00000   51.24852    6.42897   44.29064
    3682      444        1     0.00000   51.23538   19.58186   31.14249
    3683      444        1     0.00000   38.10615    6.43738   31.15616
    3684      444        1     0.00000   38.09905   19.58580   44.28302
    3685      444        1     0.00000   51.23959   19.84474   34.57385
    3686      444        1     0.00000   51.25247    6.71288   47.70307
    3687      444        1     0.00000   38.09511   19.84132   47.71648
    3688      444        1     0.00000   38.10825    6.72392   34.56333
    3689      444        1     0.00000   27.61623    6.43028   34.55781
    3690      444        1     0.00000   27.61281   19.58002   47.70097
    3691      444        1     0.00000   40.75518    6.43133   47.70544
    3692      444        1     0.00000   40.75965   19.58081   34.56254
    3693      444        1     0.00000   27.61360   19.85814   44.28433
    3694      444        1     0.00000   27.61071    6.71551   31.15326
    3695      444        1     0.00000   40.76123   19.86051   31.14748
    3696      444        1     0.00000   40.75518    6.72339   44.29958
    3697      444        1     0.00000   44.31903   19.89048   27.59677
    3698      444        1     0.00000   44.30642    6.72550   40.76254
    3699      444        1     0.00000   31.16851   19.86813   40.74283
    3700      444        1     0.00000   31.15589    6.73023   27.60440
    3701      444        1     0.00000   34.55439    6.43554   27.61150
    3702      444        1     0.00000   34.55518   19.56056   40.74099
    3703      444        1     0.00000   47.69440    6.41714   40.75623
    3704      444        1     0.00000   47.68888   19.54532   27.60992
    3705      444        1     0.00000   34.55650   19.85183   51.25956
    3706      444        1     0.00000   34.56543    6.72076   38.10878
    3707      444        1     0.00000   47.69230   19.87497   38.11693
    3708      444        1     0.00000   47.70386    6.71551   51.25089
    3709      444        1     0.00000   44.29879    6.42923   51.25063
    3710      444        1     0.00000   44.30747   19.56293   38.11561
    3711      444        1     0.00000   31.15747    6.43160   38.11009
    3712      444        1     0.00000   31.15800   19.56530   51.25983
    3713      444        1     0.00000   27.61360   18.01562   46.13894
    3714      444        1     0.00000   27.61491    4.86484   32.99657
    3715      444        1     0.00000   40.75991   18.01641   32.99973
    3716      444        1     0.00000   40.75466    4.86799   46.14131
    3717      444        1     0.00000   27.61123    8.28043   32.71582
    3718      444        1     0.00000   27.61202   21.42148   45.84741
    3719      444        1     0.00000   40.75387    8.28489   45.86502
    3720      444        1     0.00000   40.75860   21.42306   32.71240
    3721      444        1     0.00000   51.24879    8.27596   46.13868
    3722      444        1     0.00000   51.24169   21.40887   33.01050
    3723      444        1     0.00000   38.11062    8.28805   33.00052
    3724      444        1     0.00000   38.09774   21.40781   46.15629
    3725      444        1     0.00000   51.23959   18.01746   32.70530
    3726      444        1     0.00000   51.25247    4.86852   45.85714
    3727      444        1     0.00000   38.10168   18.01983   45.84452
    3728      444        1     0.00000   38.10457    4.87404   32.72029
    3729      444        1     0.00000   46.14210    1.31597   44.31246
    3730      444        1     0.00000   46.14105   14.45335   31.16483
    3731      444        1     0.00000   32.99631    1.32544   31.15931
    3732      444        1     0.00000   33.00078   14.46308   44.29275
    3733      444        1     0.00000   32.71608    1.31466   34.57463
    3734      444        1     0.00000   32.71713   14.46334   47.70492
    3735      444        1     0.00000   45.85109    1.31150   47.71648
    3736      444        1     0.00000   45.85845   14.45835   34.57332
    3737      444        1     0.00000   46.14788   24.97929   34.57516
    3738      444        1     0.00000   46.15288   11.82929   47.70991
    3739      444        1     0.00000   32.99578   24.97166   47.71806
    3740      444        1     0.00000   33.00656   11.82877   34.58173
    3741      444        1     0.00000   32.73343   24.96720   44.29353
    3742      444        1     0.00000   32.71030   11.83113   31.15826
    3743      444        1     0.00000   45.87028   24.97692   31.15800
    3744      444        1     0.00000   45.85635   11.83297   44.30904
    3745      444        1     0.00000   46.15971   18.03508   51.24274
    3746      444        1     0.00000   46.14867    4.88140   38.11299
    3747      444        1     0.00000   33.01655   18.02325   38.10063
    3748      444        1     0.00000   33.00761    4.87930   51.25746
    3749      444        1     0.00000   32.70898    8.27675   51.25036
    3750      444        1     0.00000   32.70451   21.40860   38.10089
    3751      444        1     0.00000   45.84583    8.27096   38.12192
    3752      444        1     0.00000   45.83926   21.38862   51.25536
    3753      444        1     0.00000   46.14657    8.27517   27.60571
    3754      444        1     0.00000   46.15130   21.40992   40.75676
    3755      444        1     0.00000   33.00420    8.27753   40.75177
    3756      444        1     0.00000   33.00183   21.41149   27.61596
    3757      444        1     0.00000   32.71161   18.01142   27.61965
    3758      444        1     0.00000   32.71923    4.86694   40.75071
    3759      444        1     0.00000   45.84452   18.02561   40.75623
    3760      444        1     0.00000   45.85582    4.87088   27.60703
    3761      444        1     0.00000   44.29643    1.33148   32.72528
    3762      444        1     0.00000   44.30563   14.47096   45.86161
    3763      444        1     0.00000   31.14906    1.32018   45.86371
    3764      444        1     0.00000   31.15405   14.47070   32.73106
    3765      444        1     0.00000   34.56911    1.32649   46.14525
    3766      444        1     0.00000   34.55045   14.46465   32.99946
    3767      444        1     0.00000   47.71096    1.33227   33.00945
    3768      444        1     0.00000   47.70860   14.46886   46.15367
    3769      444        1     0.00000   34.56780   24.97088   32.71897
    3770      444        1     0.00000   34.56780   11.82351   45.85845
    3771      444        1     0.00000   47.70071   24.96273   45.86476
    3772      444        1     0.00000   47.70702   11.81589   32.72554
    3773      444        1     0.00000   44.29958   24.95747   46.15629
    3774      444        1     0.00000   44.29616   11.81904   33.01418
    3775      444        1     0.00000   31.15405   24.96325   32.99710
    3776      444        1     0.00000   31.15353   11.82246   46.13947
    3777      444        1     0.00000   27.59415   19.86419   34.55282
    3778      444        1     0.00000   27.60492    6.71708   47.69861
    3779      444        1     0.00000   40.73520   19.86524   47.69466
    3780      444        1     0.00000   40.74835    6.71288   34.56780
    3781      444        1     0.00000   27.60440    6.42976   44.28959
    3782      444        1     0.00000   27.58968   19.56030   31.15905
    3783      444        1     0.00000   40.74835    6.43659   31.15248
    3784      444        1     0.00000   40.74046   19.55951   44.30852
    3785      444        1     0.00000   51.25851   19.86550   44.29459
    3786      444        1     0.00000   51.25720    6.70946   31.15169
    3787      444        1     0.00000   38.11772   19.86682   31.15011
    3788      444        1     0.00000   38.11456    6.71551   44.29327
    3789      444        1     0.00000   51.26325    6.43896   34.57043
    3790      444        1     0.00000   51.26193   19.57555   47.69966
    3791      444        1     0.00000   38.11483    6.43764   47.71122
    3792      444        1     0.00000   38.11877   19.56924   34.55098
    3793      444        2     0.00000   33.61276    7.33748   26.28685
    3794      444        2     0.00000   33.61854   20.47249   39.42133
    3795      444        2     0.00000   46.75172    7.32644   39.43868
    3796      444        2     0.00000   46.76433   20.46592   26.28974
    3797      444        2     0.00000   45.23885   18.96278   26.27528
    3798      444        2     0.00000   45.24174    5.81725   39.43763
    3799      444        2     0.00000   32.10883   18.96278   39.42239
    3800      444        2     0.00000   32.10436    5.82776   26.28711
    3801      444        2     0.00000   45.24700    7.32749   26.28422
    3802      444        2     0.00000   45.24700   20.46881   39.43606
    3803      444        2     0.00000   32.10673    7.32880   39.43106
    3804      444        2     0.00000   32.10436   20.46460   26.29473
    3805      444        2     0.00000   33.61039   18.95515   26.29579
    3806      444        2     0.00000   33.61723    5.81935   39.42948
    3807      444        2     0.00000   46.75750   18.96120   39.43632
    3808      444        2     0.00000   46.75671    5.81646   26.28501
    3809      444        2     0.00000   26.29368    7.32802   33.61092
    3810      444        2     0.00000   26.29184   20.46934   46.74593
    3811      444        2     0.00000   39.43422    7.31960   46.74646
    3812      444        2     0.00000   39.43842   20.46934   33.60514
    3813      444        2     0.00000   26.29184   18.96304   45.23885
    3814      444        2     0.00000   26.29211    5.81751   32.10436
    3815      444        2     0.00000   39.43842   18.96199   32.09463
    3816      444        2     0.00000   39.43422    5.81357   45.23858
    3817      444        2     0.00000   26.27292   18.95568   33.61407
    3818      444        2     0.00000   26.28475    5.82303   46.74751
    3819      444        2     0.00000   39.41897   18.96015   46.75277
    3820      444        2     0.00000   39.42659    5.82330   33.61434
    3821      444        2     0.00000   26.28291    7.33222   45.23464
    3822      444        2     0.00000   26.27160   20.46539   32.10410
    3823      444        2     0.00000   39.42948    7.33459   32.10410
    3824      444        2     0.00000   39.41976   20.47091   45.24437
    3825      444        2     0.00000   33.61329   -0.00079   33.61854
    3826      444        2     0.00000   33.61329   13.14316   46.75224
    3827      444        2     0.00000   46.75487   -0.00657   46.77012
    3828      444        2     0.00000   46.75960   13.13764   33.62696
    3829      444        2     0.00000   45.24542   -0.00710   45.25883
    3830      444        2     0.00000   45.24857   13.13685   32.11856
    3831      444        2     0.00000   32.10462    0.00026   32.10778
    3832      444        2     0.00000   32.10278   13.14290   45.24121
    3833      444        2     0.00000   33.62012    0.00263   45.25015
    3834      444        2     0.00000   33.57806   13.14868   32.13380
    3835      444        2     0.00000   46.75645    0.01130   32.11856
    3836      444        2     0.00000   46.75566   13.15052   45.25804
    3837      444        2     0.00000   45.24516    0.01104   33.62748
    3838      444        2     0.00000   45.24700   13.15000   46.76828
    3839      444        2     0.00000   32.10620    0.00210   46.75697
    3840      444        2     0.00000   32.08333   13.14947   33.65771
    3841      444        3     0.00000   34.77653    4.66794   49.64969
    3842      444        3     0.00000   34.09725    5.35195   50.78113
    3843      444        3     0.00000   34.78415   17.81216   36.49207
    3844      444        3     0.00000   34.10618   18.49669   37.62377
    3845      444        3     0.00000   44.07902   21.60182   49.63865
    3846      444        3     0.00000   44.74884   20.91939   50.77350
    3847      444        3     0.00000   44.07876    8.48258   36.51600
    3848      444        3     0.00000   44.75594    7.79857   37.64611
    3849      444        3     0.00000   30.94217    8.48258   49.64023
    3850      444        3     0.00000   31.62040    7.80172   50.77350
    3851      444        3     0.00000   44.08717    4.66637   29.21663
    3852      444        3     0.00000   44.76645    5.34564   28.08310
    3853      444        3     0.00000   44.07902   17.81216   42.36374
    3854      444        3     0.00000   44.75462   18.49801   41.23205
    3855      444        3     0.00000   30.94638    4.65900   42.35822
    3856      444        3     0.00000   31.62855    5.33960   41.22652
    3857      444        3     0.00000   34.77390   21.62653   29.21953
    3858      444        3     0.00000   34.09304   20.94042   28.09046
    3859      444        3     0.00000   34.77705    8.48652   42.35533
    3860      444        3     0.00000   34.09541    7.80514   41.22574
    3861      444        3     0.00000   49.64628    8.47890   30.94796
    3862      444        3     0.00000   50.78113    7.79962   31.62487
    3863      444        3     0.00000   36.50969    8.48731   44.08507
    3864      444        3     0.00000   37.63954    7.80567   44.76751
    3865      444        3     0.00000   49.65679   17.80585   47.91443
    3866      444        3     0.00000   50.78533   18.48539   47.22832
    3867      444        3     0.00000   49.65127    4.67162   34.77837
    3868      444        3     0.00000   50.78586    5.34854   34.09909
    3869      444        3     0.00000   36.50942   17.80322   34.75707
    3870      444        3     0.00000   37.64112   18.48066   34.07569
    3871      444        3     0.00000   29.20060   17.79454   30.94980
    3872      444        3     0.00000   28.06759   18.47172   31.63249
    3873      444        3     0.00000   42.35322   17.79875   44.09979
    3874      444        3     0.00000   41.21864   18.47146   44.78301
    3875      444        3     0.00000   42.35585    4.66584   30.94717
    3876      444        3     0.00000   41.22311    5.34591   31.62618
    3877      444        3     0.00000   29.21401    8.48495   47.90602
    3878      444        3     0.00000   28.08205    7.80619   47.22464
    3879      444        3     0.00000   42.35401    8.48389   34.78047
    3880      444        3     0.00000   41.22574    7.80304   34.09593
    3881      444        3     0.00000   30.94349   23.35233   34.76496
    3882      444        3     0.00000   31.62645   24.48481   34.08673
    3883      444        3     0.00000   30.94664   10.21443   47.90943
    3884      444        3     0.00000   31.62776   11.34586   47.22910
    3885      444        3     0.00000   47.90865   23.35470   44.09559
    3886      444        3     0.00000   47.22700   24.48639   44.77513
    3887      444        3     0.00000   47.91338   10.20891   30.95269
    3888      444        3     0.00000   47.23226   11.33981   31.63591
    3889      444        3     0.00000   34.77758   23.36521   30.94559
    3890      444        3     0.00000   34.09593   24.49612   31.62750
    3891      444        3     0.00000   30.94428    2.92847   44.09138
    3892      444        3     0.00000   31.62356    1.79652   44.77408
    3893      444        3     0.00000   30.93744   16.07006   30.95111
    3894      444        3     0.00000   31.62277   14.94415   31.63749
    3895      444        3     0.00000   47.91601    2.94424   34.77626
    3896      444        3     0.00000   47.23673    1.81045   34.09804
    3897      444        3     0.00000   47.92179   16.07663   47.92337
    3898      444        3     0.00000   47.23699   14.94520   47.24409
    3899      444        3     0.00000   34.77784   16.07321   34.76680
    3900      444        3     0.00000   34.09173   14.94204   34.09488
    3901      444        3     0.00000   30.94559    8.49783   29.21111
    3902      444        3     0.00000   31.62855    7.82012   28.07995
    3903      444        3     0.00000   30.96057   21.63336   42.35060
    3904      444        3     0.00000   31.64275   20.95698   41.21890
    3905      444        3     0.00000   47.89655   17.77798   29.21006
    3906      444        3     0.00000   47.20939   18.45700   28.07942
    3907      444        3     0.00000   47.90339    4.65138   42.36611
    3908      444        3     0.00000   47.22122    5.32751   41.23231
    3909      444        3     0.00000   34.75655    4.67241   29.22689
    3910      444        3     0.00000   34.07911    5.34722   28.08967
    3911      444        3     0.00000   30.94769   17.80006   49.64812
    3912      444        3     0.00000   31.62908   18.47461   50.78402
    3913      444        3     0.00000   30.94980    4.66032   36.50364
    3914      444        3     0.00000   31.63144    5.34196   37.63376
    3915      444        3     0.00000   47.91154    8.48363   49.64128
    3916      444        3     0.00000   47.23042    7.80514   50.77403
    3917      444        3     0.00000   47.90313   21.63941   36.50969
    3918      444        3     0.00000   47.21806   20.96355   37.64086
    3919      444        3     0.00000   34.77469    8.49415   36.50390
    3920      444        3     0.00000   34.09225    7.81171   37.63455
    3921      444        3     0.00000   34.76601   23.36127   47.92731
    3922      444        3     0.00000   34.08726   24.49533   47.24751
    3923      444        3     0.00000   34.77521   10.22652   34.77311
    3924      444        3     0.00000   34.09278   11.35821   34.09830
    3925      444        3     0.00000   44.10111   23.36495   30.95295
    3926      444        3     0.00000   44.78091   24.49848   31.63144
    3927      444        3     0.00000   44.08901   10.22678   44.09769
    3928      444        3     0.00000   44.76698   11.35637   44.78196
    3929      444        3     0.00000   30.94428   10.22126   30.94743
    3930      444        3     0.00000   31.62540   11.34980   31.63433
    3931      444        3     0.00000   44.08639    2.92505   47.91574
    3932      444        3     0.00000   44.76330    1.78915   47.23962
    3933      444        3     0.00000   44.08954   16.06638   34.77863
    3934      444        3     0.00000   44.76803   14.93389   34.09935
    3935      444        3     0.00000   30.94454    2.92111   34.78099
    3936      444        3     0.00000   31.62592    1.79021   34.10119
    3937      444        3     0.00000   34.75786    2.94346   30.96031
    3938      444        3     0.00000   34.08358    1.80466   31.63565
    3939      444        3     0.00000   34.77127   16.06900   44.08271
    3940      444        3     0.00000   34.09094   14.93889   44.76566
    3941      444        3     0.00000   49.63892    4.65795   44.09375
    3942      444        3     0.00000   50.77376    5.33986   44.76803
    3943      444        3     0.00000   36.49129    4.67215   30.95505
    3944      444        3     0.00000   37.62771    5.34906   31.63118
    3945      444        3     0.00000   49.63629   21.62522   34.77994
    3946      444        3     0.00000   50.76535   20.93674   34.10066
    3947      444        3     0.00000   36.49076   21.62101   47.92416
    3948      444        3     0.00000   37.62061   20.93384   47.24514
    3949      444        3     0.00000   36.50522    8.49625   34.77258
    3950      444        3     0.00000   37.63455    7.81513   34.09067
    3951      444        3     0.00000   29.22005    4.65822   34.77074
    3952      444        3     0.00000   28.09125    5.33934   34.08621
    3953      444        3     0.00000   42.36137    4.66058   47.91180
    3954      444        3     0.00000   41.23099    5.34170   47.23147
    3955      444        3     0.00000   29.22505   21.63021   44.07902
    3956      444        3     0.00000   28.08994   20.94856   44.75778
    3957      444        3     0.00000   29.21532    8.48915   30.94428
    3958      444        3     0.00000   28.08573    7.80645   31.62566
    3959      444        3     0.00000   42.37241   21.63047   30.94717
    3960      444        3     0.00000   41.23730   20.94988   31.62356
    3961      444        3     0.00000   44.10689   21.64362   29.21374
    3962      444        3     0.00000   44.79695   20.97433   28.07942
    3963      444        3     0.00000   44.09664    8.49651   42.36663
    3964      444        3     0.00000   44.78065    7.81539   41.23730
    3965      444        3     0.00000   34.76470   17.79481   42.34797
    3966      444        3     0.00000   34.08095   18.47146   41.21706
    3967      444        3     0.00000   34.76259   21.62758   49.65679
    3968      444        3     0.00000   34.08384   20.94515   50.78770
    3969      444        3     0.00000   44.09164    4.66032   49.64233
    3970      444        3     0.00000   44.77224    5.33934   50.77455
    3971      444        3     0.00000   44.09874   17.79901   36.50574
    3972      444        3     0.00000   44.78170   18.47435   37.63875
    3973      444        3     0.00000   29.22005   17.80847   47.91154
    3974      444        3     0.00000   28.08888   18.48959   47.22910
    3975      444        3     0.00000   42.36716   17.80742   34.77258
    3976      444        3     0.00000   41.23599   18.49012   34.09015
    3977      444        3     0.00000   42.36058    8.49493   44.09375
    3978      444        3     0.00000   41.22942    7.81382   44.77381
    3979      444        3     0.00000   49.64286    8.48153   47.91022
    3980      444        3     0.00000   50.77455    7.80172   47.22937
    3981      444        3     0.00000   49.63077   17.80059   30.94138
    3982      444        3     0.00000   50.76141   18.49012   31.61646
    3983      444        3     0.00000   36.49759   17.80585   44.07640
    3984      444        3     0.00000   37.62587   18.49327   44.75489
    3985      444        3     0.00000   47.90602    2.92900   44.10584
    3986      444        3     0.00000   47.22963    1.79546   44.78748
    3987      444        3     0.00000   47.90812   16.05954   30.95032
    3988      444        3     0.00000   47.23147   14.93048   31.63591
    3989      444        3     0.00000   30.94743   16.07295   47.91285
    3990      444        3     0.00000   31.62724   14.94020   47.23173
    3991      444        3     0.00000   47.91811   23.37152   34.78205
    3992      444        3     0.00000   47.23857   24.50400   34.10145
    3993      444        3     0.00000   47.91785   10.21758   47.91259
    3994      444        3     0.00000   47.24146   11.35269   47.23410
    3995      444        3     0.00000   30.96136   23.35943   44.08349
    3996      444        3     0.00000   31.64222   24.49060   44.76461
    3997      444        3     0.00000   47.92941   17.81741   49.64575
    3998      444        3     0.00000   47.25381   18.50458   50.77482
    3999      444        3     0.00000   47.91154    4.68240   36.49943
    4000      444        3     0.00000   47.23594    5.35853   37.63560
    4001      444        3     0.00000   30.93481   21.61917   36.49549
    4002      444        3     0.00000   31.61409   20.93489   37.62640
    4003      444        3     0.00000   47.91443    8.48021   29.21742
    4004      444        3     0.00000   47.23568    7.80067   28.08310
    4005      444        3     0.00000   47.91653   21.62259   42.36453
    4006      444        3     0.00000   47.24120   20.93779   41.23283
    4007      444        3     0.00000   30.93429   17.80111   29.21979
    4008      444        3     0.00000   31.61909   18.48486   28.09178
    4009      444        3     0.00000   44.09112    2.93846   30.95242
    4010      444        3     0.00000   44.77224    1.80808   31.63617
    4011      444        3     0.00000   44.09296   16.07715   44.09243
    4012      444        3     0.00000   44.77855   14.94704   44.77145
    4013      444        3     0.00000   34.77311    2.93610   47.91653
    4014      444        3     0.00000   34.09304    1.80361   47.23410
    4015      444        3     0.00000   34.77758   10.21784   44.08533
    4016      444        3     0.00000   34.09541   11.34770   44.76777
    4017      444        3     0.00000   44.09112   23.34103   47.91706
    4018      444        3     0.00000   44.77303   24.47719   47.24435
    4019      444        3     0.00000   44.08507   10.21495   34.78625
    4020      444        3     0.00000   44.76882   11.34375   34.10461
    4021      444        3     0.00000   29.20428   21.62916   34.76233
    4022      444        3     0.00000   28.07101   20.95303   34.07884
    4023      444        3     0.00000   42.35086   21.62075   47.90575
    4024      444        3     0.00000   41.21548   20.95251   47.22148
    4025      444        3     0.00000   29.21295    4.65979   44.08717
    4026      444        3     0.00000   28.08073    5.34091   44.76566
    4027      444        3     0.00000   49.64733   21.63179   44.09348
    4028      444        3     0.00000   50.78165   20.95409   44.77092
    4029      444        3     0.00000   36.50837   21.63494   30.94717
    4030      444        3     0.00000   37.64112   20.95540   31.62645
    4031      444        3     0.00000   36.50785    4.66479   47.92021
    4032      444        3     0.00000   37.63796    5.34748   47.23883
    4033      444        3     0.00000   35.93162    5.22577   49.07346
    4034      444        4     0.00000   36.35459    6.12850   49.49617
    4035      444        3     0.00000   35.93819   18.36683   35.91243
    4036      444        4     0.00000   36.36169   19.27140   36.33067
    4037      444        3     0.00000   42.92472   21.04820   49.05559
    4038      444        4     0.00000   42.49150   20.14757   49.47567
    4039      444        3     0.00000   42.92788    7.92265   35.93503
    4040      444        4     0.00000   42.50438    7.01940   36.35590
    4041      444        3     0.00000   29.77893   21.06476   35.91689
    4042      444        4     0.00000   29.35228   20.16361   36.34039
    4043      444        3     0.00000   42.93287    5.22630   29.79339
    4044      444        4     0.00000   42.50964    6.12876   29.37016
    4045      444        3     0.00000   42.92551   18.36578   42.94628
    4046      444        4     0.00000   42.49860   19.26824   42.52620
    4047      444        3     0.00000   29.77998   18.35947   29.79891
    4048      444        4     0.00000   29.35570   19.26167   29.37778
    4049      444        3     0.00000   35.92636   21.06765   29.79917
    4050      444        4     0.00000   36.34591   20.16072   29.38199
    4051      444        3     0.00000   35.93162    7.92659   42.93182
    4052      444        4     0.00000   36.35485    7.02518   42.50727
    4053      444        3     0.00000   49.06715    9.63005   31.51236
    4054      444        4     0.00000   49.48986   10.05118   32.41614
    4055      444        3     0.00000   49.06453   22.78162   44.65631
    4056      444        4     0.00000   49.48566   23.20591   45.55930
    4057      444        3     0.00000   35.93162    9.64030   44.64553
    4058      444        4     0.00000   36.35249   10.06222   45.54931
    4059      444        3     0.00000   49.07346   16.65338   47.35791
    4060      444        4     0.00000   49.48750   16.23304   46.45177
    4061      444        3     0.00000   49.07478    3.51601   34.22054
    4062      444        4     0.00000   49.50196    3.08725   33.32228
    4063      444        3     0.00000   35.92899    3.51180   47.35870
    4064      444        4     0.00000   36.35143    3.08909   46.45571
    4065      444        3     0.00000   29.78104   16.64287   31.50920
    4066      444        4     0.00000   29.35964   16.21832   32.41088
    4067      444        3     0.00000   29.79103    3.50759   44.65052
    4068      444        4     0.00000   29.36937    3.08830   45.55562
    4069      444        3     0.00000   29.79365    9.63767   47.34687
    4070      444        4     0.00000   29.37200   10.06222   46.44415
    4071      444        3     0.00000   29.78919   22.77873   34.20214
    4072      444        4     0.00000   29.36937   23.20275   33.29888
    4073      444        3     0.00000   31.50105   22.77137   35.91847
    4074      444        4     0.00000   32.40588   23.19013   36.34118
    4075      444        3     0.00000   44.64842   22.75244   49.06610
    4076      444        4     0.00000   45.54931   23.16910   49.49617
    4077      444        3     0.00000   44.64290    9.63609   35.94029
    4078      444        4     0.00000   45.54668   10.05670   36.36379
    4079      444        3     0.00000   47.34950   22.77321   42.94312
    4080      444        4     0.00000   46.44441   23.19224   42.52068
    4081      444        3     0.00000   47.35292    9.63241   29.79812
    4082      444        4     0.00000   46.44914   10.05512   29.37725
    4083      444        3     0.00000   34.21344   22.78162   29.79576
    4084      444        4     0.00000   33.30887   23.20196   29.37489
    4085      444        3     0.00000   31.50684    3.50654   42.93839
    4086      444        4     0.00000   32.41061    3.08410   42.51700
    4087      444        3     0.00000   44.65026    3.51496   29.79707
    4088      444        4     0.00000   45.55351    3.09277   29.37436
    4089      444        3     0.00000   47.34845    3.53046   35.92136
    4090      444        4     0.00000   46.44126    3.11275   36.34013
    4091      444        3     0.00000   34.21212    3.51653   49.06873
    4092      444        4     0.00000   33.30651    3.09698   49.48618
    4093      444        3     0.00000   31.50237    9.65187   29.78866
    4094      444        4     0.00000   32.40536   10.07615   29.36858
    4095      444        3     0.00000   44.65473    9.64976   42.94549
    4096      444        4     0.00000   45.55930   10.07168   42.52488
    4097      444        3     0.00000   47.34398   16.62473   29.79287
    4098      444        4     0.00000   46.44126   16.19755   29.37515
    4099      444        3     0.00000   34.20766   16.64234   42.92919
    4100      444        4     0.00000   33.30493   16.21753   42.50885
    4101      444        3     0.00000   34.19320    3.52337   29.81022
    4102      444        4     0.00000   33.29100    3.09908   29.38777
    4103      444        3     0.00000   31.50631   16.64708   49.06873
    4104      444        4     0.00000   32.40851   16.22331   49.49118
    4105      444        3     0.00000   31.50552    3.50102   35.93319
    4106      444        4     0.00000   32.40536    3.07595   36.35958
    4107      444        3     0.00000   44.65342   16.64287   35.93056
    4108      444        4     0.00000   45.55430   16.21674   36.35433
    4109      444        3     0.00000   47.35371    9.63846   49.06400
    4110      444        4     0.00000   46.45019   10.06091   49.48513
    4111      444        3     0.00000   34.21107    9.64372   35.92242
    4112      444        4     0.00000   33.30309   10.06012   36.33987
    4113      444        3     0.00000   35.91663   22.77794   47.36396
    4114      444        4     0.00000   36.33934   23.19907   46.45992
    4115      444        3     0.00000   35.92531    9.64740   34.20844
    4116      444        4     0.00000   36.34355   10.06511   33.29967
    4117      444        3     0.00000   42.94707   22.78451   31.51183
    4118      444        4     0.00000   42.51989   23.20880   32.41324
    4119      444        3     0.00000   42.93550    9.64845   44.65526
    4120      444        4     0.00000   42.51016   10.07221   45.55667
    4121      444        3     0.00000   29.79024    9.64319   31.50500
    4122      444        4     0.00000   29.36805   10.06511   32.40851
    4123      444        3     0.00000   42.93471    3.50391   47.35397
    4124      444        4     0.00000   42.50859    3.07884   46.45414
    4125      444        3     0.00000   42.93866   16.64839   34.21659
    4126      444        4     0.00000   42.51332   16.22489   33.31544
    4127      444        3     0.00000   29.79287    3.49945   34.21712
    4128      444        4     0.00000   29.36753    3.07306   33.31702
    4129      444        3     0.00000   35.91374    3.51942   31.51761
    4130      444        4     0.00000   36.33934    3.09566   32.41876
    4131      444        3     0.00000   35.92347   16.65181   44.64132
    4132      444        4     0.00000   36.34723   16.23330   45.54589
    4133      444        3     0.00000   49.05822    5.21447   42.93997
    4134      444        4     0.00000   49.48093    6.11562   42.51305
    4135      444        3     0.00000   49.04902   18.34843   29.78498
    4136      444        4     0.00000   49.46279   19.25457   29.36148
    4137      444        3     0.00000   35.91164    5.23287   29.80233
    4138      444        4     0.00000   36.33776    6.13218   29.37541
    4139      444        3     0.00000   49.04875   21.06581   35.92820
    4140      444        4     0.00000   49.45674   20.15309   36.34223
    4141      444        3     0.00000   49.06321    7.92028   49.06242
    4142      444        4     0.00000   49.48434    7.01624   49.48461
    4143      444        3     0.00000   35.93135    7.93684   35.92925
    4144      444        4     0.00000   36.35406    7.03359   36.35301
    4145      444        3     0.00000   29.80101    5.22419   35.92005
    4146      444        4     0.00000   29.38619    6.13481   36.33251
    4147      444        3     0.00000   29.79628   18.36578   49.06821
    4148      444        4     0.00000   29.37384   19.26850   49.49223
    4149      444        3     0.00000   29.80522   21.07185   42.92551
    4150      444        4     0.00000   29.38277   20.16965   42.50070
    4151      444        3     0.00000   29.79760    7.92975   29.79287
    4152      444        4     0.00000   29.37962    7.02544   29.37068
    4153      444        3     0.00000   42.95522   21.07238   29.79287
    4154      444        4     0.00000   42.53803   20.16361   29.37384
    4155      444        3     0.00000   42.94155    7.93527   42.94128
    4156      444        4     0.00000   42.51910    7.03385   42.51647
    4157      444        3     0.00000   35.91742   18.36105   42.92262
    4158      444        4     0.00000   36.33724   19.26430   42.49781
    4159      444        3     0.00000   35.91295   21.06397   49.07793
    4160      444        4     0.00000   36.33435   20.16150   49.50143
    4161      444        3     0.00000   42.94076    5.22367   49.06269
    4162      444        4     0.00000   42.52094    6.12981   49.48224
    4163      444        3     0.00000   42.95049   18.36841   35.92347
    4164      444        4     0.00000   42.53330   19.27508   36.34381
    4165      444        3     0.00000   29.79786   16.65575   47.35003
    4166      444        4     0.00000   29.37463   16.23409   46.44704
    4167      444        3     0.00000   29.80575   22.78162   44.64237
    4168      444        4     0.00000   29.38409   23.20301   45.54589
    4169      444        3     0.00000   49.06821    9.63636   47.35055
    4170      444        4     0.00000   49.49039   10.05775   46.44678
    4171      444        3     0.00000   49.06873   22.78609   34.22133
    4172      444        4     0.00000   49.49407   23.20643   33.31860
    4173      444        3     0.00000   49.05716   16.64865   31.50973
    4174      444        4     0.00000   49.48513   16.22989   32.41219
    4175      444        3     0.00000   49.06032    3.50891   44.66235
    4176      444        4     0.00000   49.48461    3.09014   45.56666
    4177      444        3     0.00000   47.34293    3.50234   42.95127
    4178      444        4     0.00000   46.43915    3.07831   42.53172
    4179      444        3     0.00000   44.64974    3.50523   49.06610
    4180      444        4     0.00000   45.55115    3.08042   49.48881
    4181      444        3     0.00000   47.35345   22.79818   35.93530
    4182      444        4     0.00000   46.45545   23.22878   36.36037
    4183      444        3     0.00000   34.20319   22.78320   49.08030
    4184      444        4     0.00000   33.30125   23.20880   49.50301
    4185      444        3     0.00000   31.52287   22.78346   42.93077
    4186      444        4     0.00000   32.42796   23.20407   42.51016
    4187      444        3     0.00000   44.66314   22.79240   29.79917
    4188      444        4     0.00000   45.56639   23.21511   29.38067
    4189      444        3     0.00000   47.36554   16.66022   49.07530
    4190      444        4     0.00000   46.46518   16.23725   49.50301
    4191      444        3     0.00000   34.21949   16.65891   35.91742
    4192      444        4     0.00000   33.31571   16.24172   36.34276
    4193      444        3     0.00000   31.50526    9.63557   49.06321
    4194      444        4     0.00000   32.40983   10.05565   49.48566
    4195      444        3     0.00000   34.21607    9.63977   42.93235
    4196      444        4     0.00000   33.31229   10.06117   42.50911
    4197      444        3     0.00000   31.49264   16.64471   29.79313
    4198      444        4     0.00000   32.39326   16.22253   29.36700
    4199      444        3     0.00000   44.64711   16.65917   42.93787
    4200      444        4     0.00000   45.55010   16.24014   42.51200
    4201      444        3     0.00000   42.93655    3.51548   31.51131
    4202      444        4     0.00000   42.51489    3.09435   32.41535
    4203      444        3     0.00000   42.93813   16.64839   44.65710
    4204      444        4     0.00000   42.51779   16.22174   45.55930
    4205      444        3     0.00000   35.92688   16.65049   34.19793
    4206      444        4     0.00000   36.34644   16.22647   33.29336
    4207      444        3     0.00000   35.93398   22.79187   31.50395
    4208      444        4     0.00000   36.35827   23.21695   32.40562
    4209      444        3     0.00000   42.93524   22.77321   47.35213
    4210      444        4     0.00000   42.52147   23.19697   46.44546
    4211      444        3     0.00000   42.93287    9.63793   34.22290
    4212      444        4     0.00000   42.51174   10.06196   33.31991
    4213      444        3     0.00000   29.78997    7.92291   49.06006
    4214      444        4     0.00000   29.36726    7.01913   49.48040
    4215      444        3     0.00000   29.79181    5.21973   42.93366
    4216      444        4     0.00000   29.36858    6.12193   42.50911
    4217      444        3     0.00000   49.07189   21.06817   42.94128
    4218      444        4     0.00000   49.49722   20.16624   42.51989
    4219      444        3     0.00000   49.06794    7.91923   29.79444
    4220      444        4     0.00000   49.49170    7.01782   29.36989
    4221      444        3     0.00000   49.06794    5.23918   35.92531
    4222      444        4     0.00000   49.49013    6.14322   36.34644
    4223      444        3     0.00000   49.08398   18.37077   49.06768
    4224      444        4     0.00000   49.50984   19.27087   49.49302
    4225      161        5     0.00000   37.35773    9.14766   52.07002
    4226      161        6     0.00000   37.61877   10.10191   52.11655
    4227      161        6     0.00000   38.02545    8.73389   51.46671
    4228      162        5     0.00000   39.32302    2.11276   52.42727
    4229      162        6     0.00000   38.33512    2.09331   52.49431
    4230      162        6     0.00000   39.55383    1.31518   51.88706
    4231      163        5     0.00000   38.96550   10.66158   30.84464
    4232      163        6     0.00000   39.32381   11.47493   31.28181
    4233      163        6     0.00000   37.98128   10.76516   30.88960
    4234      164        5     0.00000   49.27746   17.14208   37.50574
    4235      164        6     0.00000   49.77009   17.93492   37.83775
    4236      164        6     0.00000   48.85633   17.44307   36.66084
    4237      165        5     0.00000   37.73023   21.41859   38.00153
    4238      165        6     0.00000   37.83591   20.44673   38.16162
    4239      165        6     0.00000   37.03518   21.48484   37.29885
    4240      166        5     0.00000   48.83950   25.78974   37.78518
    4241      166        6     0.00000   48.98592   25.60126   36.82383
    4242      166        6     0.00000   48.50118   24.93644   38.15741
    4243      167        5     0.00000   34.06964    0.43533   38.03780
    4244      167        6     0.00000   34.48158    0.52497   38.93422
    4245      167        6     0.00000   33.18400    0.02603   38.20841
    4246      168        5     0.00000   31.72897    1.12328   51.48012
    4247      168        6     0.00000   32.07623    2.03942   51.33291
    4248      168        6     0.00000   32.49237    0.62539   51.86813
    4249      169        5     0.00000   40.50492   17.27983   38.26966
    4250      169        6     0.00000   40.01386   17.77851   38.97050
    4251      169        6     0.00000   41.44761   17.56689   38.37218
    4252      170        5     0.00000   40.32695    8.98520   28.09966
    4253      170        6     0.00000   40.98625    8.25466   28.21270
    4254      170        6     0.00000   40.71391    9.56643   27.39699
    4255      171        5     0.00000   47.23857   15.21991   26.25925
    4256      171        6     0.00000   47.41785   14.81875   27.14673
    4257      171        6     0.00000   48.05586   15.73804   26.04842
    4258      172        5     0.00000   46.98988    6.40163   46.19809
    4259      172        6     0.00000   47.95938    6.27860   46.35871
    4260      172        6     0.00000   46.56218    6.18528   47.06507
    4261      173        5     0.00000   52.38127    3.67032   48.60475
    4262      173        6     0.00000   52.95408    3.92557   49.37157
    4263      173        6     0.00000   51.70041    3.06307   48.99013
    4264      174        5     0.00000   40.44972   12.58139   43.19076
    4265      174        6     0.00000   39.94762   13.40630   43.41158
    4266      174        6     0.00000   40.05330   12.26725   42.33903
    4267      175        5     0.00000   49.48355    2.58226   38.38743
    4268      175        6     0.00000   48.54087    2.34015   38.57118
    4269      175        6     0.00000   49.97251    2.29940   39.20025
    4270      176        5     0.00000   36.34302    1.16508   28.64277
    4271      176        6     0.00000   36.20186    0.52891   29.38935
    4272      176        6     0.00000   35.44030    1.30493   28.26002
    4273      177        5     0.00000   51.82607   20.25693   37.86483
    4274      177        6     0.00000   52.61418   20.85445   37.80857
    4275      177        6     0.00000   51.18517   20.74115   38.44474
    4276      178        5     0.00000   40.97574   22.59287   41.14766
    4277      178        6     0.00000   40.56749   21.77532   41.52989
    4278      178        6     0.00000   40.37690   23.32920   41.43157
    4279      179        5     0.00000   34.06281    8.48495   31.47030
    4280      179        6     0.00000   34.80150    8.04751   31.96372
    4281      179        6     0.00000   33.57596    9.00650   32.15746
    4282      180        5     0.00000   43.40579    4.10538   43.87424
    4283      180        6     0.00000   43.23808    4.38351   42.93866
    4284      180        6     0.00000   43.19812    3.13694   43.88896
    4285      181        5     0.00000   48.41548   24.06578   50.39469
    4286      181        6     0.00000   48.21700   23.81132   49.45832
    4287      181        6     0.00000   47.75013   23.57078   50.93622
    4288      182        5     0.00000   52.06818   26.01792   38.30936
    4289      182        6     0.00000   52.58500   25.36756   37.76993
    4290      182        6     0.00000   51.54295   25.46141   38.93816
    4291      183        5     0.00000   32.14064   13.39395   41.14819
    4292      183        6     0.00000   32.32202   12.44495   41.36717
    4293      183        6     0.00000   32.83990   13.63790   40.49046
    4294      184        5     0.00000   36.74891   10.67078   39.53595
    4295      184        6     0.00000   36.16190   10.12978   40.12243
    4296      184        6     0.00000   37.42976   11.05248   40.14583
    4297      185        5     0.00000   51.92675    0.36488   31.45558
    4298      185        6     0.00000   51.35315    0.01262   30.72871
    4299      185        6     0.00000   52.59683    0.93033   30.99449
    4300      186        5     0.00000   43.02041   14.32533   37.86614
    4301      186        6     0.00000   42.81247   13.35714   37.83539
    4302      186        6     0.00000   42.28330   14.75671   37.36457
    4303      187        5     0.00000   40.11350    7.62743   40.64083
    4304      187        6     0.00000   39.66450    8.51018   40.63873
    4305      187        6     0.00000   40.06513    7.31881   39.70078
    4306      188        5     0.00000   28.05970    6.72707   39.16687
    4307      188        6     0.00000   27.62201    5.84301   39.25598
    4308      188        6     0.00000   27.93720    6.97287   38.21498
    4309      189        5     0.00000   45.12581   20.34158   45.56403
    4310      189        6     0.00000   45.91445   20.62680   46.09110
    4311      189        6     0.00000   44.92944   21.11024   44.97097
    4312      190        5     0.00000   37.27335   21.85445   26.70483
    4313      190        6     0.00000   36.53782   21.39520   26.22639
    4314      190        6     0.00000   36.91110   22.75086   26.92170
    4315      191        5     0.00000   43.02514    4.29807   35.31937
    4316      191        6     0.00000   42.11926    3.89981   35.36590
    4317      191        6     0.00000   43.44417    4.07068   36.18792
    4318      192        5     0.00000   45.91892   13.25462   39.50020
    4319      192        6     0.00000   46.74804   13.36582   38.96997
    4320      192        6     0.00000   45.74778   14.14920   39.88926
    4321      444        1     0.00000   34.57017   32.73133   24.96798
    4322      444        1     0.00000   34.57937   45.87528   11.81142
    4323      444        1     0.00000   47.71122   32.73396   11.82824
    4324      444        1     0.00000   47.73462   45.87712   24.97140
    4325      444        1     0.00000   44.26672   46.11975   24.95694
    4326      444        1     0.00000   44.28170   32.99552   11.83271
    4327      444        1     0.00000   31.14196   46.13185   11.81510
    4328      444        1     0.00000   31.14696   32.99973   24.96273
    4329      444        1     0.00000   44.29301   32.72318    1.31755
    4330      444        1     0.00000   44.28013   45.87633   14.46807
    4331      444        1     0.00000   31.15589   32.71818   14.46334
    4332      444        1     0.00000   31.14564   45.86213    1.32517
    4333      444        1     0.00000   34.56649   46.13763    1.32728
    4334      444        1     0.00000   34.56859   33.00288   14.46203
    4335      444        1     0.00000   47.71701   46.13553   14.46939
    4336      444        1     0.00000   47.70938   32.99868    1.31834
    4337      444        1     0.00000   51.25930   34.56281    6.42503
    4338      444        1     0.00000   51.25878   47.71464   19.57239
    4339      444        1     0.00000   38.11430   34.56517   19.57108
    4340      444        1     0.00000   38.11719   47.71490    6.42923
    4341      444        1     0.00000   51.25851   44.29984   19.84868
    4342      444        1     0.00000   51.26088   31.16036    6.72182
    4343      444        1     0.00000   38.11614   44.29511    6.69711
    4344      444        1     0.00000   38.11325   31.16115   19.86077
    4345      444        1     0.00000   27.59336   44.28591    6.43607
    4346      444        1     0.00000   27.60492   31.15721   19.56845
    4347      444        1     0.00000   40.74230   44.28433   19.58501
    4348      444        1     0.00000   40.74572   31.15984    6.42739
    4349      444        1     0.00000   27.60598   34.56833   19.84658
    4350      444        1     0.00000   27.59546   47.71385    6.69973
    4351      444        1     0.00000   40.75255   34.56570    6.71735
    4352      444        1     0.00000   40.74072   47.71806   19.84421
    4353      444        1     0.00000   32.71582   51.24826    8.27464
    4354      444        1     0.00000   32.71766   38.10957   21.41491
    4355      444        1     0.00000   45.86161   51.24221   21.43305
    4356      444        1     0.00000   45.86056   38.10510    8.28884
    4357      444        1     0.00000   46.13658   51.24931   18.01405
    4358      444        1     0.00000   46.14078   38.10300    4.87693
    4359      444        1     0.00000   33.00551   51.25956    4.86642
    4360      444        1     0.00000   33.00446   38.10983   18.00669
    4361      444        1     0.00000   32.71503   27.60966   18.01483
    4362      444        1     0.00000   32.70714   40.75177    4.87325
    4363      444        1     0.00000   45.86292   27.61991    4.87693
    4364      444        1     0.00000   45.86949   40.76018   18.01063
    4365      444        1     0.00000   46.14631   27.62306    8.28384
    4366      444        1     0.00000   46.14604   40.75886   21.43016
    4367      444        1     0.00000   33.00262   27.61439   21.41780
    4368      444        1     0.00000   33.00577   40.75965    8.29410
    4369      444        1     0.00000   32.71897   34.58173    1.31702
    4370      444        1     0.00000   32.73264   47.71937   14.45440
    4371      444        1     0.00000   45.87186   34.57516   14.47359
    4372      444        1     0.00000   45.89526   47.73094    1.32386
    4373      444        1     0.00000   46.11581   44.27855    1.31045
    4374      444        1     0.00000   46.13053   31.14196   14.46807
    4375      444        1     0.00000   32.99026   44.28591   14.45388
    4376      444        1     0.00000   32.99026   31.16036    1.32333
    4377      444        1     0.00000   32.71634   44.28512   24.97587
    4378      444        1     0.00000   32.72160   31.15642   11.82141
    4379      444        1     0.00000   45.87239   44.28828   11.82693
    4380      444        1     0.00000   45.86134   31.15248   24.96378
    4381      444        1     0.00000   46.14105   34.56780   24.96273
    4382      444        1     0.00000   46.12712   47.72411   11.82850
    4383      444        1     0.00000   33.00157   34.57148   11.82298
    4384      444        1     0.00000   32.99578   47.70833   24.97824
    4385      444        1     0.00000   34.56359   51.25956   19.87102
    4386      444        1     0.00000   34.55203   38.12140    6.71498
    4387      444        1     0.00000   47.71096   51.26719    6.72313
    4388      444        1     0.00000   47.71412   38.11719   19.85604
    4389      444        1     0.00000   44.30589   51.26219    6.43265
    4390      444        1     0.00000   44.29380   38.11746   19.58554
    4391      444        1     0.00000   31.16562   51.25457   19.56530
    4392      444        1     0.00000   31.15642   38.11009    6.44132
    4393      444        1     0.00000   44.28985   27.59967   19.86235
    4394      444        1     0.00000   44.29459   40.74546    6.72182
    4395      444        1     0.00000   31.15379   27.60440    6.72182
    4396      444        1     0.00000   31.15353   40.75255   19.85341
    4397      444        1     0.00000   34.55912   27.61360    6.43554
    4398      444        1     0.00000   34.56386   40.75255   19.56871
    4399      444        1     0.00000   47.70439   27.60729   19.58948
    4400      444        1     0.00000   47.70728   40.74572    6.43843
    4401      444        1     0.00000   51.24852   32.71687   18.00274
    4402      444        1     0.00000   51.23538   45.86976    4.85459
    4403      444        1     0.00000   38.10615   32.72528    4.86826
    4404      444        1     0.00000   38.09905   45.87370   17.99512
    4405      444        1     0.00000   51.23959   46.13264    8.28595
    4406      444        1     0.00000   51.25247   33.00078   21.41517
    4407      444        1     0.00000   38.09511   46.12922   21.42858
    4408      444        1     0.00000   38.10825   33.01182    8.27543
    4409      444        1     0.00000   27.61623   32.71818    8.26991
    4410      444        1     0.00000   27.61281   45.86792   21.41307
    4411      444        1     0.00000   40.75518   32.71923   21.41754
    4412      444        1     0.00000   40.75965   45.86871    8.27464
    4413      444        1     0.00000   27.61360   46.14604   17.99643
    4414      444        1     0.00000   27.61071   33.00341    4.86536
    4415      444        1     0.00000   40.76123   46.14841    4.85958
    4416      444        1     0.00000   40.75518   33.01129   18.01168
    4417      444        1     0.00000   44.31903   46.17838    1.30887
    4418      444        1     0.00000   44.30642   33.01340   14.47464
    4419      444        1     0.00000   31.16851   46.15603   14.45493
    4420      444        1     0.00000   31.15589   33.01813    1.31650
    4421      444        1     0.00000   34.55439   32.72344    1.32360
    4422      444        1     0.00000   34.55518   45.84846   14.45309
    4423      444        1     0.00000   47.69440   32.70504   14.46833
    4424      444        1     0.00000   47.68888   45.83322    1.32202
    4425      444        1     0.00000   34.55650   46.13973   24.97166
    4426      444        1     0.00000   34.56543   33.00866   11.82088
    4427      444        1     0.00000   47.69230   46.16287   11.82903
    4428      444        1     0.00000   47.70386   33.00341   24.96299
    4429      444        1     0.00000   44.29879   32.71713   24.96273
    4430      444        1     0.00000   44.30747   45.85083   11.82771
    4431      444        1     0.00000   31.15747   32.71950   11.82219
    4432      444        1     0.00000   31.15800   45.85320   24.97193
    4433      444        1     0.00000   27.61360   44.30352   19.85104
    4434      444        1     0.00000   27.61491   31.15274    6.70867
    4435      444        1     0.00000   40.75991   44.30431    6.71183
    4436      444        1     0.00000   40.75466   31.15589   19.85341
    4437      444        1     0.00000   27.61123   34.56833    6.42792
    4438      444        1     0.00000   27.61202   47.70938   19.55951
    4439      444        1     0.00000   40.75387   34.57279   19.57712
    4440      444        1     0.00000   40.75860   47.71096    6.42450
    4441      444        1     0.00000   51.24879   34.56386   19.85078
    4442      444        1     0.00000   51.24169   47.69677    6.72260
    4443      444        1     0.00000   38.11062   34.57595    6.71262
    4444      444        1     0.00000   38.09774   47.69571   19.86839
    4445      444        1     0.00000   51.23959   44.30536    6.41740
    4446      444        1     0.00000   51.25247   31.15642   19.56924
    4447      444        1     0.00000   38.10168   44.30773   19.55662
    4448      444        1     0.00000   38.10457   31.16194    6.43239
    4449      444        1     0.00000   46.14210   27.60387   18.02456
    4450      444        1     0.00000   46.14105   40.74125    4.87693
    4451      444        1     0.00000   32.99631   27.61334    4.87141
    4452      444        1     0.00000   33.00078   40.75098   18.00485
    4453      444        1     0.00000   32.71608   27.60256    8.28673
    4454      444        1     0.00000   32.71713   40.75124   21.41702
    4455      444        1     0.00000   45.85109   27.59940   21.42858
    4456      444        1     0.00000   45.85845   40.74625    8.28542
    4457      444        1     0.00000   46.14788   51.26719    8.28726
    4458      444        1     0.00000   46.15288   38.11719   21.42201
    4459      444        1     0.00000   32.99578   51.25956   21.43016
    4460      444        1     0.00000   33.00656   38.11667    8.29383
    4461      444        1     0.00000   32.73343   51.25510   18.00563
    4462      444        1     0.00000   32.71030   38.11903    4.87036
    4463      444        1     0.00000   45.87028   51.26482    4.87010
    4464      444        1     0.00000   45.85635   38.12087   18.02114
    4465      444        1     0.00000   46.15971   44.32298   24.95484
    4466      444        1     0.00000   46.14867   31.16930   11.82509
    4467      444        1     0.00000   33.01655   44.31115   11.81273
    4468      444        1     0.00000   33.00761   31.16720   24.96956
    4469      444        1     0.00000   32.70898   34.56465   24.96246
    4470      444        1     0.00000   32.70451   47.69650   11.81299
    4471      444        1     0.00000   45.84583   34.55886   11.83402
    4472      444        1     0.00000   45.83926   47.67652   24.96746
    4473      444        1     0.00000   46.14657   34.56307    1.31781
    4474      444        1     0.00000   46.15130   47.69782   14.46886
    4475      444        1     0.00000   33.00420   34.56543   14.46387
    4476      444        1     0.00000   33.00183   47.69939    1.32806
    4477      444        1     0.00000   32.71161   44.29932    1.33175
    4478      444        1     0.00000   32.71923   31.15484   14.46281
    4479      444        1     0.00000   45.84452   44.31351   14.46833
    4480      444        1     0.00000   45.85582   31.15878    1.31913
    4481      444        1     0.00000   44.29643   27.61938    6.43738
    4482      444        1     0.00000   44.30563   40.75886   19.57371
    4483      444        1     0.00000   31.14906   27.60808   19.57581
    4484      444        1     0.00000   31.15405   40.75860    6.44316
    4485      444        1     0.00000   34.56911   27.61439   19.85735
    4486      444        1     0.00000   34.55045   40.75255    6.71156
    4487      444        1     0.00000   47.71096   27.62017    6.72155
    4488      444        1     0.00000   47.70860   40.75676   19.86577
    4489      444        1     0.00000   34.56780   51.25878    6.43107
    4490      444        1     0.00000   34.56780   38.11141   19.57055
    4491      444        1     0.00000   47.70071   51.25063   19.57686
    4492      444        1     0.00000   47.70702   38.10379    6.43764
    4493      444        1     0.00000   44.29958   51.24537   19.86839
    4494      444        1     0.00000   44.29616   38.10694    6.72628
    4495      444        1     0.00000   31.15405   51.25115    6.70920
    4496      444        1     0.00000   31.15353   38.11036   19.85157
    4497      444        1     0.00000   27.59415   46.15209    8.26492
    4498      444        1     0.00000   27.60492   33.00498   21.41071
    4499      444        1     0.00000   40.73520   46.15314   21.40676
    4500      444        1     0.00000   40.74835   33.00078    8.27990
    4501      444        1     0.00000   27.60440   32.71766   18.00169
    4502      444        1     0.00000   27.58968   45.84820    4.87115
    4503      444        1     0.00000   40.74835   32.72449    4.86458
    4504      444        1     0.00000   40.74046   45.84741   18.02062
    4505      444        1     0.00000   51.25851   46.15340   18.00669
    4506      444        1     0.00000   51.25720   32.99736    4.86379
    4507      444        1     0.00000   38.11772   46.15472    4.86221
    4508      444        1     0.00000   38.11456   33.00341   18.00537
    4509      444        1     0.00000   51.26325   32.72686    8.28253
    4510      444        1     0.00000   51.26193   45.86345   21.41176
    4511      444        1     0.00000   38.11483   32.72554   21.42332
    4512      444        1     0.00000   38.11877   45.85714    8.26308
    4513      444        2     0.00000   33.61276   33.62538   -0.00105
    4514      444        2     0.00000   33.61854   46.76039   13.13343
    4515      444        2     0.00000   46.75172   33.61434   13.15078
    4516      444        2     0.00000   46.76433   46.75382    0.00184
    4517      444        2     0.00000   45.23885   45.25068   -0.01262
    4518      444        2     0.00000   45.24174   32.10515   13.14973
    4519      444        2     0.00000   32.10883   45.25068   13.13449
    4520      444        2     0.00000   32.10436   32.11566   -0.00079
    4521      444        2     0.00000   45.24700   33.61539   -0.00368
    4522      444        2     0.00000   45.24700   46.75671   13.14816
    4523      444        2     0.00000   32.10673   33.61670   13.14316
    4524      444        2     0.00000   32.10436   46.75250    0.00683
    4525      444        2     0.00000   33.61039   45.24305    0.00789
    4526      444        2     0.00000   33.61723   32.10725   13.14158
    4527      444        2     0.00000   46.75750   45.24910   13.14842
    4528      444        2     0.00000   46.75671   32.10436   -0.00289
    4529      444        2     0.00000   26.29368   33.61592    7.32302
    4530      444        2     0.00000   26.29184   46.75724   20.45803
    4531      444        2     0.00000   39.43422   33.60750   20.45856
    4532      444        2     0.00000   39.43842   46.75724    7.31724
    4533      444        2     0.00000   26.29184   45.25094   18.95095
    4534      444        2     0.00000   26.29211   32.10541    5.81646
    4535      444        2     0.00000   39.43842   45.24989    5.80673
    4536      444        2     0.00000   39.43422   32.10147   18.95068
    4537      444        2     0.00000   26.27292   45.24358    7.32617
    4538      444        2     0.00000   26.28475   32.11093   20.45961
    4539      444        2     0.00000   39.41897   45.24805   20.46487
    4540      444        2     0.00000   39.42659   32.11120    7.32644
    4541      444        2     0.00000   26.28291   33.62012   18.94674
    4542      444        2     0.00000   26.27160   46.75329    5.81620
    4543      444        2     0.00000   39.42948   33.62249    5.81620
    4544      444        2     0.00000   39.41976   46.75881   18.95647
    4545      444        2     0.00000   33.61329   26.28711    7.33064
    4546      444        2     0.00000   33.61329   39.43106   20.46434
    4547      444        2     0.00000   46.75487   26.28133   20.48222
    4548      444        2     0.00000   46.75960   39.42554    7.33906
    4549      444        2     0.00000   45.24542   26.28080   18.97093
    4550      444        2     0.00000   45.24857   39.42475    5.83066
    4551      444        2     0.00000   32.10462   26.28816    5.81988
    4552      444        2     0.00000   32.10278   39.43080   18.95331
    4553      444        2     0.00000   33.62012   26.29053   18.96225
    4554      444        2     0.00000   33.57806   39.43658    5.84590
    4555      444        2     0.00000   46.75645   26.29920    5.83066
    4556      444        2     0.00000   46.75566   39.43842   18.97014
    4557      444        2     0.00000   45.24516   26.29894    7.33958
    4558      444        2     0.00000   45.24700   39.43790   20.48038
    4559      444        2     0.00000   32.10620   26.29000   20.46907
    4560      444        2     0.00000   32.08333   39.43737    7.36981
    4561      444        3     0.00000   34.77653   30.95584   23.36179
    4562      444        3     0.00000   34.09725   31.63985   24.49323
    4563      444        3     0.00000   34.78415   44.10006   10.20417
    4564      444        3     0.00000   34.10618   44.78459   11.33587
    4565      444        3     0.00000   44.07902   47.88972   23.35075
    4566      444        3     0.00000   44.74884   47.20729   24.48560
    4567      444        3     0.00000   44.07876   34.77048   10.22810
    4568      444        3     0.00000   44.75594   34.08647   11.35821
    4569      444        3     0.00000   30.94217   34.77048   23.35233
    4570      444        3     0.00000   31.62040   34.08962   24.48560
    4571      444        3     0.00000   44.08717   30.95427    2.92873
    4572      444        3     0.00000   44.76645   31.63354    1.79520
    4573      444        3     0.00000   44.07902   44.10006   16.07584
    4574      444        3     0.00000   44.75462   44.78591   14.94415
    4575      444        3     0.00000   30.94638   30.94690   16.07032
    4576      444        3     0.00000   31.62855   31.62750   14.93862
    4577      444        3     0.00000   34.77390   47.91443    2.93163
    4578      444        3     0.00000   34.09304   47.22832    1.80256
    4579      444        3     0.00000   34.77705   34.77442   16.06743
    4580      444        3     0.00000   34.09541   34.09304   14.93784
    4581      444        3     0.00000   49.64628   34.76680    4.66006
    4582      444        3     0.00000   50.78113   34.08752    5.33697
    4583      444        3     0.00000   36.50969   34.77521   17.79717
    4584      444        3     0.00000   37.63954   34.09357   18.47961
    4585      444        3     0.00000   49.65679   44.09375   21.62653
    4586      444        3     0.00000   50.78533   44.77329   20.94042
    4587      444        3     0.00000   49.65127   30.95952    8.49047
    4588      444        3     0.00000   50.78586   31.63644    7.81119
    4589      444        3     0.00000   36.50942   44.09112    8.46917
    4590      444        3     0.00000   37.64112   44.76856    7.78779
    4591      444        3     0.00000   29.20060   44.08244    4.66190
    4592      444        3     0.00000   28.06759   44.75962    5.34459
    4593      444        3     0.00000   42.35322   44.08665   17.81189
    4594      444        3     0.00000   41.21864   44.75936   18.49511
    4595      444        3     0.00000   42.35585   30.95374    4.65927
    4596      444        3     0.00000   41.22311   31.63381    5.33828
    4597      444        3     0.00000   29.21401   34.77285   21.61812
    4598      444        3     0.00000   28.08205   34.09409   20.93674
    4599      444        3     0.00000   42.35401   34.77179    8.49257
    4600      444        3     0.00000   41.22574   34.09094    7.80803
    4601      444        3     0.00000   30.94349   49.64023    8.47706
    4602      444        3     0.00000   31.62645   50.77271    7.79883
    4603      444        3     0.00000   30.94664   36.50233   21.62153
    4604      444        3     0.00000   31.62776   37.63376   20.94120
    4605      444        3     0.00000   47.90865   49.64260   17.80769
    4606      444        3     0.00000   47.22700   50.77429   18.48723
    4607      444        3     0.00000   47.91338   36.49681    4.66479
    4608      444        3     0.00000   47.23226   37.62771    5.34801
    4609      444        3     0.00000   34.77758   49.65311    4.65769
    4610      444        3     0.00000   34.09593   50.78402    5.33960
    4611      444        3     0.00000   30.94428   29.21637   17.80348
    4612      444        3     0.00000   31.62356   28.08442   18.48618
    4613      444        3     0.00000   30.93744   42.35796    4.66321
    4614      444        3     0.00000   31.62277   41.23205    5.34959
    4615      444        3     0.00000   47.91601   29.23214    8.48836
    4616      444        3     0.00000   47.23673   28.09835    7.81014
    4617      444        3     0.00000   47.92179   42.36453   21.63547
    4618      444        3     0.00000   47.23699   41.23310   20.95619
    4619      444        3     0.00000   34.77784   42.36111    8.47890
    4620      444        3     0.00000   34.09173   41.22994    7.80698
    4621      444        3     0.00000   30.94559   34.78573    2.92321
    4622      444        3     0.00000   31.62855   34.10802    1.79205
    4623      444        3     0.00000   30.96057   47.92126   16.06270
    4624      444        3     0.00000   31.64275   47.24488   14.93100
    4625      444        3     0.00000   47.89655   44.06588    2.92216
    4626      444        3     0.00000   47.20939   44.74490    1.79152
    4627      444        3     0.00000   47.90339   30.93928   16.07821
    4628      444        3     0.00000   47.22122   31.61541   14.94441
    4629      444        3     0.00000   34.75655   30.96031    2.93899
    4630      444        3     0.00000   34.07911   31.63512    1.80177
    4631      444        3     0.00000   30.94769   44.08796   23.36022
    4632      444        3     0.00000   31.62908   44.76251   24.49612
    4633      444        3     0.00000   30.94980   30.94822   10.21574
    4634      444        3     0.00000   31.63144   31.62986   11.34586
    4635      444        3     0.00000   47.91154   34.77153   23.35338
    4636      444        3     0.00000   47.23042   34.09304   24.48613
    4637      444        3     0.00000   47.90313   47.92731   10.22179
    4638      444        3     0.00000   47.21806   47.25145   11.35296
    4639      444        3     0.00000   34.77469   34.78205   10.21600
    4640      444        3     0.00000   34.09225   34.09961   11.34665
    4641      444        3     0.00000   34.76601   49.64917   21.63941
    4642      444        3     0.00000   34.08726   50.78323   20.95961
    4643      444        3     0.00000   34.77521   36.51442    8.48521
    4644      444        3     0.00000   34.09278   37.64611    7.81040
    4645      444        3     0.00000   44.10111   49.65285    4.66505
    4646      444        3     0.00000   44.78091   50.78638    5.34354
    4647      444        3     0.00000   44.08901   36.51468   17.80979
    4648      444        3     0.00000   44.76698   37.64427   18.49406
    4649      444        3     0.00000   30.94428   36.50916    4.65953
    4650      444        3     0.00000   31.62540   37.63770    5.34643
    4651      444        3     0.00000   44.08639   29.21295   21.62784
    4652      444        3     0.00000   44.76330   28.07705   20.95172
    4653      444        3     0.00000   44.08954   42.35428    8.49073
    4654      444        3     0.00000   44.76803   41.22179    7.81145
    4655      444        3     0.00000   30.94454   29.20901    8.49309
    4656      444        3     0.00000   31.62592   28.07811    7.81329
    4657      444        3     0.00000   34.75786   29.23136    4.67241
    4658      444        3     0.00000   34.08358   28.09256    5.34775
    4659      444        3     0.00000   34.77127   42.35690   17.79481
    4660      444        3     0.00000   34.09094   41.22679   18.47776
    4661      444        3     0.00000   49.63892   30.94585   17.80585
    4662      444        3     0.00000   50.77376   31.62776   18.48013
    4663      444        3     0.00000   36.49129   30.96005    4.66715
    4664      444        3     0.00000   37.62771   31.63696    5.34328
    4665      444        3     0.00000   49.63629   47.91312    8.49204
    4666      444        3     0.00000   50.76535   47.22464    7.81276
    4667      444        3     0.00000   36.49076   47.90891   21.63626
    4668      444        3     0.00000   37.62061   47.22174   20.95724
    4669      444        3     0.00000   36.50522   34.78415    8.48468
    4670      444        3     0.00000   37.63455   34.10303    7.80277
    4671      444        3     0.00000   29.22005   30.94612    8.48284
    4672      444        3     0.00000   28.09125   31.62724    7.79831
    4673      444        3     0.00000   42.36137   30.94848   21.62390
    4674      444        3     0.00000   41.23099   31.62960   20.94357
    4675      444        3     0.00000   29.22505   47.91811   17.79112
    4676      444        3     0.00000   28.08994   47.23646   18.46988
    4677      444        3     0.00000   29.21532   34.77705    4.65638
    4678      444        3     0.00000   28.08573   34.09435    5.33776
    4679      444        3     0.00000   42.37241   47.91837    4.65927
    4680      444        3     0.00000   41.23730   47.23778    5.33566
    4681      444        3     0.00000   44.10689   47.93152    2.92584
    4682      444        3     0.00000   44.79695   47.26223    1.79152
    4683      444        3     0.00000   44.09664   34.78441   16.07873
    4684      444        3     0.00000   44.78065   34.10329   14.94940
    4685      444        3     0.00000   34.76470   44.08271   16.06007
    4686      444        3     0.00000   34.08095   44.75936   14.92916
    4687      444        3     0.00000   34.76259   47.91548   23.36889
    4688      444        3     0.00000   34.08384   47.23305   24.49980
    4689      444        3     0.00000   44.09164   30.94822   23.35443
    4690      444        3     0.00000   44.77224   31.62724   24.48665
    4691      444        3     0.00000   44.09874   44.08691   10.21784
    4692      444        3     0.00000   44.78170   44.76225   11.35085
    4693      444        3     0.00000   29.22005   44.09637   21.62364
    4694      444        3     0.00000   28.08888   44.77749   20.94120
    4695      444        3     0.00000   42.36716   44.09532    8.48468
    4696      444        3     0.00000   41.23599   44.77802    7.80225
    4697      444        3     0.00000   42.36058   34.78283   17.80585
    4698      444        3     0.00000   41.22942   34.10172   18.48591
    4699      444        3     0.00000   49.64286   34.76943   21.62232
    4700      444        3     0.00000   50.77455   34.08962   20.94147
    4701      444        3     0.00000   49.63077   44.08849    4.65348
    4702      444        3     0.00000   50.76141   44.77802    5.32856
    4703      444        3     0.00000   36.49759   44.09375   17.78850
    4704      444        3     0.00000   37.62587   44.78117   18.46699
    4705      444        3     0.00000   47.90602   29.21690   17.81794
    4706      444        3     0.00000   47.22963   28.08336   18.49958
    4707      444        3     0.00000   47.90812   42.34744    4.66242
    4708      444        3     0.00000   47.23147   41.21838    5.34801
    4709      444        3     0.00000   30.94743   42.36085   21.62495
    4710      444        3     0.00000   31.62724   41.22810   20.94383
    4711      444        3     0.00000   47.91811   49.65942    8.49415
    4712      444        3     0.00000   47.23857   50.79190    7.81355
    4713      444        3     0.00000   47.91785   36.50548   21.62469
    4714      444        3     0.00000   47.24146   37.64059   20.94620
    4715      444        3     0.00000   30.96136   49.64733   17.79559
    4716      444        3     0.00000   31.64222   50.77850   18.47671
    4717      444        3     0.00000   47.92941   44.10531   23.35785
    4718      444        3     0.00000   47.25381   44.79248   24.48692
    4719      444        3     0.00000   47.91154   30.97030   10.21153
    4720      444        3     0.00000   47.23594   31.64643   11.34770
    4721      444        3     0.00000   30.93481   47.90707   10.20759
    4722      444        3     0.00000   31.61409   47.22279   11.33850
    4723      444        3     0.00000   47.91443   34.76811    2.92952
    4724      444        3     0.00000   47.23568   34.08857    1.79520
    4725      444        3     0.00000   47.91653   47.91049   16.07663
    4726      444        3     0.00000   47.24120   47.22569   14.94493
    4727      444        3     0.00000   30.93429   44.08901    2.93189
    4728      444        3     0.00000   31.61909   44.77276    1.80388
    4729      444        3     0.00000   44.09112   29.22636    4.66452
    4730      444        3     0.00000   44.77224   28.09598    5.34827
    4731      444        3     0.00000   44.09296   42.36505   17.80453
    4732      444        3     0.00000   44.77855   41.23494   18.48355
    4733      444        3     0.00000   34.77311   29.22400   21.62863
    4734      444        3     0.00000   34.09304   28.09151   20.94620
    4735      444        3     0.00000   34.77758   36.50574   17.79743
    4736      444        3     0.00000   34.09541   37.63560   18.47987
    4737      444        3     0.00000   44.09112   49.62893   21.62916
    4738      444        3     0.00000   44.77303   50.76509   20.95645
    4739      444        3     0.00000   44.08507   36.50285    8.49835
    4740      444        3     0.00000   44.76882   37.63165    7.81671
    4741      444        3     0.00000   29.20428   47.91706    8.47443
    4742      444        3     0.00000   28.07101   47.24093    7.79094
    4743      444        3     0.00000   42.35086   47.90865   21.61785
    4744      444        3     0.00000   41.21548   47.24041   20.93358
    4745      444        3     0.00000   29.21295   30.94769   17.79927
    4746      444        3     0.00000   28.08073   31.62881   18.47776
    4747      444        3     0.00000   49.64733   47.91969   17.80558
    4748      444        3     0.00000   50.78165   47.24199   18.48302
    4749      444        3     0.00000   36.50837   47.92284    4.65927
    4750      444        3     0.00000   37.64112   47.24330    5.33855
    4751      444        3     0.00000   36.50785   30.95269   21.63231
    4752      444        3     0.00000   37.63796   31.63538   20.95093
    4753      444        3     0.00000   35.93162   31.51367   22.78556
    4754      444        4     0.00000   36.35459   32.41640   23.20827
    4755      444        3     0.00000   35.93819   44.65473    9.62453
    4756      444        4     0.00000   36.36169   45.55930   10.04277
    4757      444        3     0.00000   42.92472   47.33610   22.76769
    4758      444        4     0.00000   42.49150   46.43547   23.18777
    4759      444        3     0.00000   42.92788   34.21055    9.64713
    4760      444        4     0.00000   42.50438   33.30730   10.06800
    4761      444        3     0.00000   29.77893   47.35266    9.62899
    4762      444        4     0.00000   29.35228   46.45151   10.05249
    4763      444        3     0.00000   42.93287   31.51420    3.50549
    4764      444        4     0.00000   42.50964   32.41666    3.08226
    4765      444        3     0.00000   42.92551   44.65368   16.65838
    4766      444        4     0.00000   42.49860   45.55614   16.23830
    4767      444        3     0.00000   29.77998   44.64737    3.51101
    4768      444        4     0.00000   29.35570   45.54957    3.08988
    4769      444        3     0.00000   35.92636   47.35555    3.51127
    4770      444        4     0.00000   36.34591   46.44862    3.09409
    4771      444        3     0.00000   35.93162   34.21449   16.64392
    4772      444        4     0.00000   36.35485   33.31308   16.21937
    4773      444        3     0.00000   49.06715   35.91795    5.22446
    4774      444        4     0.00000   49.48986   36.33908    6.12824
    4775      444        3     0.00000   49.06453   49.06952   18.36841
    4776      444        4     0.00000   49.48566   49.49381   19.27140
    4777      444        3     0.00000   35.93162   35.92820   18.35763
    4778      444        4     0.00000   36.35249   36.35012   19.26141
    4779      444        3     0.00000   49.07346   42.94128   21.07001
    4780      444        4     0.00000   49.48750   42.52094   20.16387
    4781      444        3     0.00000   49.07478   29.80391    7.93264
    4782      444        4     0.00000   49.50196   29.37515    7.03438
    4783      444        3     0.00000   35.92899   29.79970   21.07080
    4784      444        4     0.00000   36.35143   29.37699   20.16781
    4785      444        3     0.00000   29.78104   42.93077    5.22130
    4786      444        4     0.00000   29.35964   42.50622    6.12298
    4787      444        3     0.00000   29.79103   29.79549   18.36262
    4788      444        4     0.00000   29.36937   29.37620   19.26772
    4789      444        3     0.00000   29.79365   35.92557   21.05897
    4790      444        4     0.00000   29.37200   36.35012   20.15625
    4791      444        3     0.00000   29.78919   49.06663    7.91424
    4792      444        4     0.00000   29.36937   49.49065    7.01098
    4793      444        3     0.00000   31.50105   49.05927    9.63057
    4794      444        4     0.00000   32.40588   49.47803   10.05328
    4795      444        3     0.00000   44.64842   49.04034   22.77820
    4796      444        4     0.00000   45.54931   49.45700   23.20827
    4797      444        3     0.00000   44.64290   35.92399    9.65239
    4798      444        4     0.00000   45.54668   36.34460   10.07589
    4799      444        3     0.00000   47.34950   49.06111   16.65522
    4800      444        4     0.00000   46.44441   49.48014   16.23278
    4801      444        3     0.00000   47.35292   35.92031    3.51022
    4802      444        4     0.00000   46.44914   36.34302    3.08935
    4803      444        3     0.00000   34.21344   49.06952    3.50786
    4804      444        4     0.00000   33.30887   49.48986    3.08699
    4805      444        3     0.00000   31.50684   29.79444   16.65049
    4806      444        4     0.00000   32.41061   29.37200   16.22910
    4807      444        3     0.00000   44.65026   29.80286    3.50917
    4808      444        4     0.00000   45.55351   29.38067    3.08646
    4809      444        3     0.00000   47.34845   29.81836    9.63346
    4810      444        4     0.00000   46.44126   29.40065   10.05223
    4811      444        3     0.00000   34.21212   29.80443   22.78083
    4812      444        4     0.00000   33.30651   29.38488   23.19828
    4813      444        3     0.00000   31.50237   35.93977    3.50076
    4814      444        4     0.00000   32.40536   36.36405    3.08068
    4815      444        3     0.00000   44.65473   35.93766   16.65759
    4816      444        4     0.00000   45.55930   36.35958   16.23698
    4817      444        3     0.00000   47.34398   42.91263    3.50497
    4818      444        4     0.00000   46.44126   42.48545    3.08725
    4819      444        3     0.00000   34.20766   42.93024   16.64129
    4820      444        4     0.00000   33.30493   42.50543   16.22095
    4821      444        3     0.00000   34.19320   29.81127    3.52232
    4822      444        4     0.00000   33.29100   29.38698    3.09987
    4823      444        3     0.00000   31.50631   42.93498   22.78083
    4824      444        4     0.00000   32.40851   42.51121   23.20328
    4825      444        3     0.00000   31.50552   29.78892    9.64529
    4826      444        4     0.00000   32.40536   29.36385   10.07168
    4827      444        3     0.00000   44.65342   42.93077    9.64266
    4828      444        4     0.00000   45.55430   42.50464   10.06643
    4829      444        3     0.00000   47.35371   35.92636   22.77610
    4830      444        4     0.00000   46.45019   36.34881   23.19723
    4831      444        3     0.00000   34.21107   35.93162    9.63452
    4832      444        4     0.00000   33.30309   36.34802   10.05197
    4833      444        3     0.00000   35.91663   49.06584   21.07606
    4834      444        4     0.00000   36.33934   49.48697   20.17202
    4835      444        3     0.00000   35.92531   35.93530    7.92054
    4836      444        4     0.00000   36.34355   36.35301    7.01177
    4837      444        3     0.00000   42.94707   49.07241    5.22393
    4838      444        4     0.00000   42.51989   49.49670    6.12534
    4839      444        3     0.00000   42.93550   35.93635   18.36736
    4840      444        4     0.00000   42.51016   36.36011   19.26877
    4841      444        3     0.00000   29.79024   35.93109    5.21710
    4842      444        4     0.00000   29.36805   36.35301    6.12061
    4843      444        3     0.00000   42.93471   29.79181   21.06607
    4844      444        4     0.00000   42.50859   29.36674   20.16624
    4845      444        3     0.00000   42.93866   42.93629    7.92869
    4846      444        4     0.00000   42.51332   42.51279    7.02754
    4847      444        3     0.00000   29.79287   29.78735    7.92922
    4848      444        4     0.00000   29.36753   29.36096    7.02912
    4849      444        3     0.00000   35.91374   29.80732    5.22971
    4850      444        4     0.00000   36.33934   29.38356    6.13086
    4851      444        3     0.00000   35.92347   42.93971   18.35342
    4852      444        4     0.00000   36.34723   42.52120   19.25799
    4853      444        3     0.00000   49.05822   31.50237   16.65207
    4854      444        4     0.00000   49.48093   32.40352   16.22515
    4855      444        3     0.00000   49.04902   44.63633    3.49708
    4856      444        4     0.00000   49.46279   45.54247    3.07358
    4857      444        3     0.00000   35.91164   31.52077    3.51443
    4858      444        4     0.00000   36.33776   32.42008    3.08751
    4859      444        3     0.00000   49.04875   47.35371    9.64030
    4860      444        4     0.00000   49.45674   46.44099   10.05433
    4861      444        3     0.00000   49.06321   34.20818   22.77452
    4862      444        4     0.00000   49.48434   33.30414   23.19671
    4863      444        3     0.00000   35.93135   34.22474    9.64135
    4864      444        4     0.00000   36.35406   33.32149   10.06511
    4865      444        3     0.00000   29.80101   31.51209    9.63215
    4866      444        4     0.00000   29.38619   32.42271   10.04461
    4867      444        3     0.00000   29.79628   44.65368   22.78031
    4868      444        4     0.00000   29.37384   45.55640   23.20433
    4869      444        3     0.00000   29.80522   47.35975   16.63761
    4870      444        4     0.00000   29.38277   46.45755   16.21280
    4871      444        3     0.00000   29.79760   34.21765    3.50497
    4872      444        4     0.00000   29.37962   33.31334    3.08278
    4873      444        3     0.00000   42.95522   47.36028    3.50497
    4874      444        4     0.00000   42.53803   46.45151    3.08594
    4875      444        3     0.00000   42.94155   34.22317   16.65338
    4876      444        4     0.00000   42.51910   33.32175   16.22857
    4877      444        3     0.00000   35.91742   44.64895   16.63472
    4878      444        4     0.00000   36.33724   45.55220   16.20991
    4879      444        3     0.00000   35.91295   47.35187   22.79003
    4880      444        4     0.00000   36.33435   46.44940   23.21353
    4881      444        3     0.00000   42.94076   31.51157   22.77479
    4882      444        4     0.00000   42.52094   32.41771   23.19434
    4883      444        3     0.00000   42.95049   44.65631    9.63557
    4884      444        4     0.00000   42.53330   45.56298   10.05591
    4885      444        3     0.00000   29.79786   42.94365   21.06213
    4886      444        4     0.00000   29.37463   42.52199   20.15914
    4887      444        3     0.00000   29.80575   49.06952   18.35447
    4888      444        4     0.00000   29.38409   49.49091   19.25799
    4889      444        3     0.00000   49.06821   35.92426   21.06265
    4890      444        4     0.00000   49.49039   36.34565   20.15888
    4891      444        3     0.00000   49.06873   49.07399    7.93343
    4892      444        4     0.00000   49.49407   49.49433    7.03070
    4893      444        3     0.00000   49.05716   42.93655    5.22183
    4894      444        4     0.00000   49.48513   42.51779    6.12429
    4895      444        3     0.00000   49.06032   29.79681   18.37445
    4896      444        4     0.00000   49.48461   29.37804   19.27876
    4897      444        3     0.00000   47.34293   29.79024   16.66337
    4898      444        4     0.00000   46.43915   29.36621   16.24382
    4899      444        3     0.00000   44.64974   29.79313   22.77820
    4900      444        4     0.00000   45.55115   29.36832   23.20091
    4901      444        3     0.00000   47.35345   49.08608    9.64740
    4902      444        4     0.00000   46.45545   49.51668   10.07247
    4903      444        3     0.00000   34.20319   49.07110   22.79240
    4904      444        4     0.00000   33.30125   49.49670   23.21511
    4905      444        3     0.00000   31.52287   49.07136   16.64287
    4906      444        4     0.00000   32.42796   49.49197   16.22226
    4907      444        3     0.00000   44.66314   49.08030    3.51127
    4908      444        4     0.00000   45.56639   49.50301    3.09277
    4909      444        3     0.00000   47.36554   42.94812   22.78740
    4910      444        4     0.00000   46.46518   42.52515   23.21511
    4911      444        3     0.00000   34.21949   42.94681    9.62952
    4912      444        4     0.00000   33.31571   42.52962   10.05486
    4913      444        3     0.00000   31.50526   35.92347   22.77531
    4914      444        4     0.00000   32.40983   36.34355   23.19776
    4915      444        3     0.00000   34.21607   35.92767   16.64445
    4916      444        4     0.00000   33.31229   36.34907   16.22121
    4917      444        3     0.00000   31.49264   42.93261    3.50523
    4918      444        4     0.00000   32.39326   42.51043    3.07910
    4919      444        3     0.00000   44.64711   42.94707   16.64997
    4920      444        4     0.00000   45.55010   42.52804   16.22410
    4921      444        3     0.00000   42.93655   29.80338    5.22341
    4922      444        4     0.00000   42.51489   29.38225    6.12745
    4923      444        3     0.00000   42.93813   42.93629   18.36920
    4924      444        4     0.00000   42.51779   42.50964   19.27140
    4925      444        3     0.00000   35.92688   42.93839    7.91003
    4926      444        4     0.00000   36.34644   42.51437    7.00546
    4927      444        3     0.00000   35.93398   49.07977    5.21605
    4928      444        4     0.00000   36.35827   49.50485    6.11772
    4929      444        3     0.00000   42.93524   49.06111   21.06423
    4930      444        4     0.00000   42.52147   49.48487   20.15756
    4931      444        3     0.00000   42.93287   35.92583    7.93500
    4932      444        4     0.00000   42.51174   36.34986    7.03201
    4933      444        3     0.00000   29.78997   34.21081   22.77216
    4934      444        4     0.00000   29.36726   33.30703   23.19250
    4935      444        3     0.00000   29.79181   31.50763   16.64576
    4936      444        4     0.00000   29.36858   32.40983   16.22121
    4937      444        3     0.00000   49.07189   47.35607   16.65338
    4938      444        4     0.00000   49.49722   46.45414   16.23199
    4939      444        3     0.00000   49.06794   34.20713    3.50654
    4940      444        4     0.00000   49.49170   33.30572    3.08199
    4941      444        3     0.00000   49.06794   31.52708    9.63741
    4942      444        4     0.00000   49.49013   32.43112   10.05854
    4943      444        3     0.00000   49.08398   44.65867   22.77978
    4944      444        4     0.00000   49.50984   45.55877   23.20512
    4945      193        5     0.00000   37.35773   35.43556   25.78212
    4946      193        6     0.00000   37.61877   36.38981   25.82865
    4947      193        6     0.00000   38.02545   35.02179   25.17881
    4948      194        5     0.00000   39.32302   28.40066   26.13937
    4949      194        6     0.00000   38.33512   28.38121   26.20641
    4950      194        6     0.00000   39.55383   27.60308   25.59916
    4951      195        5     0.00000   38.96550   36.94948    4.55674
    4952      195        6     0.00000   39.32381   37.76283    4.99391
    4953      195        6     0.00000   37.98128   37.05306    4.60170
    4954      196        5     0.00000   49.27746   43.42998   11.21784
    4955      196        6     0.00000   49.77009   44.22282   11.54985
    4956      196        6     0.00000   48.85633   43.73097   10.37294
    4957      197        5     0.00000   37.73023   47.70649   11.71363
    4958      197        6     0.00000   37.83591   46.73463   11.87372
    4959      197        6     0.00000   37.03518   47.77274   11.01095
    4960      198        5     0.00000   48.83950   52.07764   11.49728
    4961      198        6     0.00000   48.98592   51.88916   10.53593
    4962      198        6     0.00000   48.50118   51.22434   11.86951
    4963      199        5     0.00000   34.06964   26.72323   11.74990
    4964      199        6     0.00000   34.48158   26.81287   12.64632
    4965      199        6     0.00000   33.18400   26.31393   11.92051
    4966      200        5     0.00000   31.72897   27.41118   25.19222
    4967      200        6     0.00000   32.07623   28.32732   25.04501
    4968      200        6     0.00000   32.49237   26.91329   25.58023
    4969      201        5     0.00000   40.50492   43.56773   11.98176
    4970      201        6     0.00000   40.01386   44.06641   12.68260
    4971      201        6     0.00000   41.44761   43.85479   12.08428
    4972      202        5     0.00000   40.32695   35.27310    1.81176
    4973      202        6     0.00000   40.98625   34.54256    1.92480
    4974      202        6     0.00000   40.71391   35.85433    1.10909
    4975      203        5     0.00000   47.23857   41.50781   -0.02865
    4976      203        6     0.00000   47.41785   41.10665    0.85883
    4977      203        6     0.00000   48.05586   42.02594   -0.23948
    4978      204        5     0.00000   46.98988   32.68953   19.91019
    4979      204        6     0.00000   47.95938   32.56650   20.07081
    4980      204        6     0.00000   46.56218   32.47318   20.77717
    4981      205        5     0.00000   52.38127   29.95822   22.31685
    4982      205        6     0.00000   52.95408   30.21347   23.08367
    4983      205        6     0.00000   51.70041   29.35097   22.70223
    4984      206        5     0.00000   40.44972   38.86929   16.90286
    4985      206        6     0.00000   39.94762   39.69420   17.12368
    4986      206        6     0.00000   40.05330   38.55515   16.05113
    4987      207        5     0.00000   49.48355   28.87016   12.09953
    4988      207        6     0.00000   48.54087   28.62805   12.28328
    4989      207        6     0.00000   49.97251   28.58730   12.91235
    4990      208        5     0.00000   36.34302   27.45298    2.35487
    4991      208        6     0.00000   36.20186   26.81681    3.10145
    4992      208        6     0.00000   35.44030   27.59283    1.97212
    4993      209        5     0.00000   51.82607   46.54483   11.57693
    4994      209        6     0.00000   52.61418   47.14235   11.52067
    4995      209        6     0.00000   51.18517   47.02905   12.15684
    4996      210        5     0.00000   40.97574   48.88077   14.85976
    4997      210        6     0.00000   40.56749   48.06322   15.24199
    4998      210        6     0.00000   40.37690   49.61710   15.14367
    4999      211        5     0.00000   34.06281   34.77285    5.18240
    5000      211        6     0.00000   34.80150   34.33541    5.67582
    5001      211        6     0.00000   33.57596   35.29440    5.86956
    5002      212        5     0.00000   43.40579   30.39328   17.58634
    5003      212        6     0.00000   43.23808   30.67141   16.65076
    5004      212        6     0.00000   43.19812   29.42484   17.60106
    5005      213        5     0.00000   48.41548   50.35368   24.10679
    5006      213        6     0.00000   48.21700   50.09922   23.17042
    5007      213        6     0.00000   47.75013   49.85868   24.64832
    5008      214        5     0.00000   52.06818   52.30582   12.02146
    5009      214        6     0.00000   52.58500   51.65546   11.48203
    5010      214        6     0.00000   51.54295   51.74931   12.65026
    5011      215        5     0.00000   32.14064   39.68185   14.86029
    5012      215        6     0.00000   32.32202   38.73285   15.07927
    5013      215        6     0.00000   32.83990   39.92580   14.20256
    5014      216        5     0.00000   36.74891   36.95868   13.24805
    5015      216        6     0.00000   36.16190   36.41768   13.83453
    5016      216        6     0.00000   37.42976   37.34038   13.85793
    5017      217        5     0.00000   51.92675   26.65278    5.16768
    5018      217        6     0.00000   51.35315   26.30052    4.44081
    5019      217        6     0.00000   52.59683   27.21823    4.70659
    5020      218        5     0.00000   43.02041   40.61323   11.57824
    5021      218        6     0.00000   42.81247   39.64504   11.54749
    5022      218        6     0.00000   42.28330   41.04461   11.07667
    5023      219        5     0.00000   40.11350   33.91533   14.35293
    5024      219        6     0.00000   39.66450   34.79808   14.35083
    5025      219        6     0.00000   40.06513   33.60671   13.41288
    5026      220        5     0.00000   28.05970   33.01497   12.87897
    5027      220        6     0.00000   27.62201   32.13091   12.96808
    5028      220        6     0.00000   27.93720   33.26077   11.92708
    5029      221        5     0.00000   45.12581   46.62948   19.27613
    5030      221        6     0.00000   45.91445   46.91470   19.80320
    5031      221        6     0.00000   44.92944   47.39814   18.68307
    5032      222        5     0.00000   37.27335   48.14235    0.41693
    5033      222        6     0.00000   36.53782   47.68310   -0.06151
    5034      222        6     0.00000   36.91110   49.03876    0.63380
    5035      223        5     0.00000   43.02514   30.58597    9.03147
    5036      223        6     0.00000   42.11926   30.18771    9.07800
    5037      223        6     0.00000   43.44417   30.35858    9.90002
    5038      224        5     0.00000   45.91892   39.54252   13.21230
    5039      224        6     0.00000   46.74804   39.65372   12.68207
    5040      224        6     0.00000   45.74778   40.43710   13.60136
    5041      444        1     0.00000   34.57017   32.73133   51.25588
    5042      444        1     0.00000   34.57937   45.87528   38.09932
    5043      444        1     0.00000   47.71122   32.73396   38.11614
    5044      444        1     0.00000   47.73462   45.87712   51.25930
    5045      444        1     0.00000   44.26672   46.11975   51.24484
    5046      444        1     0.00000   44.28170   32.99552   38.12061
    5047      444        1     0.00000   31.14196   46.13185   38.10300
    5048      444        1     0.00000   31.14696   32.99973   51.25063
    5049      444        1     0.00000   44.29301   32.72318   27.60545
    5050      444        1     0.00000   44.28013   45.87633   40.75597
    5051      444        1     0.00000   31.15589   32.71818   40.75124
    5052      444        1     0.00000   31.14564   45.86213   27.61307
    5053      444        1     0.00000   34.56649   46.13763   27.61518
    5054      444        1     0.00000   34.56859   33.00288   40.74993
    5055      444        1     0.00000   47.71701   46.13553   40.75729
    5056      444        1     0.00000   47.70938   32.99868   27.60624
    5057      444        1     0.00000   51.25930   34.56281   32.71293
    5058      444        1     0.00000   51.25878   47.71464   45.86029
    5059      444        1     0.00000   38.11430   34.56517   45.85898
    5060      444        1     0.00000   38.11719   47.71490   32.71713
    5061      444        1     0.00000   51.25851   44.29984   46.13658
    5062      444        1     0.00000   51.26088   31.16036   33.00972
    5063      444        1     0.00000   38.11614   44.29511   32.98501
    5064      444        1     0.00000   38.11325   31.16115   46.14867
    5065      444        1     0.00000   27.59336   44.28591   32.72397
    5066      444        1     0.00000   27.60492   31.15721   45.85635
    5067      444        1     0.00000   40.74230   44.28433   45.87291
    5068      444        1     0.00000   40.74572   31.15984   32.71529
    5069      444        1     0.00000   27.60598   34.56833   46.13448
    5070      444        1     0.00000   27.59546   47.71385   32.98763
    5071      444        1     0.00000   40.75255   34.56570   33.00525
    5072      444        1     0.00000   40.74072   47.71806   46.13211
    5073      444        1     0.00000   32.71582   51.24826   34.56254
    5074      444        1     0.00000   32.71766   38.10957   47.70281
    5075      444        1     0.00000   45.86161   51.24221   47.72095
    5076      444        1     0.00000   45.86056   38.10510   34.57674
    5077      444        1     0.00000   46.13658   51.24931   44.30195
    5078      444        1     0.00000   46.14078   38.10300   31.16483
    5079      444        1     0.00000   33.00551   51.25956   31.15432
    5080      444        1     0.00000   33.00446   38.10983   44.29459
    5081      444        1     0.00000   32.71503   27.60966   44.30273
    5082      444        1     0.00000   32.70714   40.75177   31.16115
    5083      444        1     0.00000   45.86292   27.61991   31.16483
    5084      444        1     0.00000   45.86949   40.76018   44.29853
    5085      444        1     0.00000   46.14631   27.62306   34.57174
    5086      444        1     0.00000   46.14604   40.75886   47.71806
    5087      444        1     0.00000   33.00262   27.61439   47.70570
    5088      444        1     0.00000   33.00577   40.75965   34.58200
    5089      444        1     0.00000   32.71897   34.58173   27.60492
    5090      444        1     0.00000   32.73264   47.71937   40.74230
    5091      444        1     0.00000   45.87186   34.57516   40.76149
    5092      444        1     0.00000   45.89526   47.73094   27.61176
    5093      444        1     0.00000   46.11581   44.27855   27.59835
    5094      444        1     0.00000   46.13053   31.14196   40.75597
    5095      444        1     0.00000   32.99026   44.28591   40.74178
    5096      444        1     0.00000   32.99026   31.16036   27.61123
    5097      444        1     0.00000   32.71634   44.28512   51.26377
    5098      444        1     0.00000   32.72160   31.15642   38.10931
    5099      444        1     0.00000   45.87239   44.28828   38.11483
    5100      444        1     0.00000   45.86134   31.15248   51.25168
    5101      444        1     0.00000   46.14105   34.56780   51.25063
    5102      444        1     0.00000   46.12712   47.72411   38.11640
    5103      444        1     0.00000   33.00157   34.57148   38.11088
    5104      444        1     0.00000   32.99578   47.70833   51.26614
    5105      444        1     0.00000   34.56359   51.25956   46.15892
    5106      444        1     0.00000   34.55203   38.12140   33.00288
    5107      444        1     0.00000   47.71096   51.26719   33.01103
    5108      444        1     0.00000   47.71412   38.11719   46.14394
    5109      444        1     0.00000   44.30589   51.26219   32.72055
    5110      444        1     0.00000   44.29380   38.11746   45.87344
    5111      444        1     0.00000   31.16562   51.25457   45.85320
    5112      444        1     0.00000   31.15642   38.11009   32.72922
    5113      444        1     0.00000   44.28985   27.59967   46.15025
    5114      444        1     0.00000   44.29459   40.74546   33.00972
    5115      444        1     0.00000   31.15379   27.60440   33.00972
    5116      444        1     0.00000   31.15353   40.75255   46.14131
    5117      444        1     0.00000   34.55912   27.61360   32.72344
    5118      444        1     0.00000   34.56386   40.75255   45.85661
    5119      444        1     0.00000   47.70439   27.60729   45.87738
    5120      444        1     0.00000   47.70728   40.74572   32.72633
    5121      444        1     0.00000   51.24852   32.71687   44.29064
    5122      444        1     0.00000   51.23538   45.86976   31.14249
    5123      444        1     0.00000   38.10615   32.72528   31.15616
    5124      444        1     0.00000   38.09905   45.87370   44.28302
    5125      444        1     0.00000   51.23959   46.13264   34.57385
    5126      444        1     0.00000   51.25247   33.00078   47.70307
    5127      444        1     0.00000   38.09511   46.12922   47.71648
    5128      444        1     0.00000   38.10825   33.01182   34.56333
    5129      444        1     0.00000   27.61623   32.71818   34.55781
    5130      444        1     0.00000   27.61281   45.86792   47.70097
    5131      444        1     0.00000   40.75518   32.71923   47.70544
    5132      444        1     0.00000   40.75965   45.86871   34.56254
    5133      444        1     0.00000   27.61360   46.14604   44.28433
    5134      444        1     0.00000   27.61071   33.00341   31.15326
    5135      444        1     0.00000   40.76123   46.14841   31.14748
    5136      444        1     0.00000   40.75518   33.01129   44.29958
    5137      444        1     0.00000   44.31903   46.17838   27.59677
    5138      444        1     0.00000   44.30642   33.01340   40.76254
    5139      444        1     0.00000   31.16851   46.15603   40.74283
    5140      444        1     0.00000   31.15589   33.01813   27.60440
    5141      444        1     0.00000   34.55439   32.72344   27.61150
    5142      444        1     0.00000   34.55518   45.84846   40.74099
    5143      444        1     0.00000   47.69440   32.70504   40.75623
    5144      444        1     0.00000   47.68888   45.83322   27.60992
    5145      444        1     0.00000   34.55650   46.13973   51.25956
    5146      444        1     0.00000   34.56543   33.00866   38.10878
    5147      444        1     0.00000   47.69230   46.16287   38.11693
    5148      444        1     0.00000   47.70386   33.00341   51.25089
    5149      444        1     0.00000   44.29879   32.71713   51.25063
    5150      444        1     0.00000   44.30747   45.85083   38.11561
    5151      444        1     0.00000   31.15747   32.71950   38.11009
    5152      444        1     0.00000   31.15800   45.85320   51.25983
    5153      444        1     0.00000   27.61360   44.30352   46.13894
    5154      444        1     0.00000   27.61491   31.15274   32.99657
    5155      444        1     0.00000   40.75991   44.30431   32.99973
    5156      444        1     0.00000   40.75466   31.15589   46.14131
    5157      444        1     0.00000   27.61123   34.56833   32.71582
    5158      444        1     0.00000   27.61202   47.70938   45.84741
    5159      444        1     0.00000   40.75387   34.57279   45.86502
    5160      444        1     0.00000   40.75860   47.71096   32.71240
    5161      444        1     0.00000   51.24879   34.56386   46.13868
    5162      444        1     0.00000   51.24169   47.69677   33.01050
    5163      444        1     0.00000   38.11062   34.57595   33.00052
    5164      444        1     0.00000   38.09774   47.69571   46.15629
    5165      444        1     0.00000   51.23959   44.30536   32.70530
    5166      444        1     0.00000   51.25247   31.15642   45.85714
    5167      444        1     0.00000   38.10168   44.30773   45.84452
    5168      444        1     0.00000   38.10457   31.16194   32.72029
    5169      444        1     0.00000   46.14210   27.60387   44.31246
    5170      444        1     0.00000   46.14105   40.74125   31.16483
    5171      444        1     0.00000   32.99631   27.61334   31.15931
    5172      444        1     0.00000   33.00078   40.75098   44.29275
    5173      444        1     0.00000   32.71608   27.60256   34.57463
    5174      444        1     0.00000   32.71713   40.75124   47.70492
    5175      444        1     0.00000   45.85109   27.59940   47.71648
    5176      444        1     0.00000   45.85845   40.74625   34.57332
    5177      444        1     0.00000   46.14788   51.26719   34.57516
    5178      444        1     0.00000   46.15288   38.11719   47.70991
    5179      444        1     0.00000   32.99578   51.25956   47.71806
    5180      444        1     0.00000   33.00656   38.11667   34.58173
    5181      444        1     0.00000   32.73343   51.25510   44.29353
    5182      444        1     0.00000   32.71030   38.11903   31.15826
    5183      444        1     0.00000   45.87028   51.26482   31.15800
    5184      444        1     0.00000   45.85635   38.12087   44.30904
    5185      444        1     0.00000   46.15971   44.32298   51.24274
    5186      444        1     0.00000   46.14867   31.16930   38.11299
    5187      444        1     0.00000   33.01655   44.31115   38.10063
    5188      444        1     0.00000   33.00761   31.16720   51.25746
    5189      444        1     0.00000   32.70898   34.56465   51.25036
    5190      444        1     0.00000   32.70451   47.69650   38.10089
    5191      444        1     0.00000   45.84583   34.55886   38.12192
    5192      444        1     0.00000   45.83926   47.67652   51.25536
    5193      444        1     0.00000   46.14657   34.56307   27.60571
    5194      444        1     0.00000   46.15130   47.69782   40.75676
    5195      444        1     0.00000   33.00420   34.56543   40.75177
    5196      444        1     0.00000   33.00183   47.69939   27.61596
    5197      444        1     0.00000   32.71161   44.29932   27.61965
    5198      444        1     0.00000   32.71923   31.15484   40.75071
    5199      444        1     0.00000   45.84452   44.31351   40.75623
    5200      444        1     0.00000   45.85582   31.15878   27.60703
    5201      444        1     0.00000   44.29643   27.61938   32.72528
    5202      444        1     0.00000   44.30563   40.75886   45.86161
    5203      444        1     0.00000   31.14906   27.60808   45.86371
    5204      444        1     0.00000   31.15405   40.75860   32.73106
    5205      444        1     0.00000   34.56911   27.61439   46.14525
    5206      444        1     0.00000   34.55045   40.75255   32.99946
    5207      444        1     0.00000   47.71096   27.62017   33.00945
    5208      444        1     0.00000   47.70860   40.75676   46.15367
    5209      444        1     0.00000   34.56780   51.25878   32.71897
    5210      444        1     0.00000   34.56780   38.11141   45.85845
    5211      444        1     0.00000   47.70071   51.25063   45.86476
    5212      444        1     0.00000   47.70702   38.10379   32.72554
    5213      444        1     0.00000   44.29958   51.24537   46.15629
    5214      444        1     0.00000   44.29616   38.10694   33.01418
    5215      444        1     0.00000   31.15405   51.25115   32.99710
    5216      444        1     0.00000   31.15353   38.11036   46.13947
    5217      444        1     0.00000   27.59415   46.15209   34.55282
    5218      444        1     0.00000   27.60492   33.00498   47.69861
    5219      444        1     0.00000   40.73520   46.15314   47.69466
    5220      444        1     0.00000   40.74835   33.00078   34.56780
    5221      444        1     0.00000   27.60440   32.71766   44.28959
    5222      444        1     0.00000   27.58968   45.84820   31.15905
    5223      444        1     0.00000   40.74835   32.72449   31.15248
    5224      444        1     0.00000   40.74046   45.84741   44.30852
    5225      444        1     0.00000   51.25851   46.15340   44.29459
    5226      444        1     0.00000   51.25720   32.99736   31.15169
    5227      444        1     0.00000   38.11772   46.15472   31.15011
    5228      444        1     0.00000   38.11456   33.00341   44.29327
    5229      444        1     0.00000   51.26325   32.72686   34.57043
    5230      444        1     0.00000   51.26193   45.86345   47.69966
    5231      444        1     0.00000   38.11483   32.72554   47.71122
    5232      444        1     0.00000   38.11877   45.85714   34.55098
    5233      444        2     0.00000   33.61276   33.62538   26.28685
    5234      444        2     0.00000   33.61854   46.76039   39.42133
    5235      444        2     0.00000   46.75172   33.61434   39.43868
    5236      444        2     0.00000   46.76433   46.75382   26.28974
    5237      444        2     0.00000   45.23885   45.25068   26.27528
    5238      444        2     0.00000   45.24174   32.10515   39.43763
    5239      444        2     0.00000   32.10883   45.25068   39.42239
    5240      444        2     0.00000   32.10436   32.11566   26.28711
    5241      444        2     0.00000   45.24700   33.61539   26.28422
    5242      444        2     0.00000   45.24700   46.75671   39.43606
    5243      444        2     0.00000   32.10673   33.61670   39.43106
    5244      444        2     0.00000   32.10436   46.75250   26.29473
    5245      444        2     0.00000   33.61039   45.24305   26.29579
    5246      444        2     0.00000   33.61723   32.10725   39.42948
    5247      444        2     0.00000   46.75750   45.24910   39.43632
    5248      444        2     0.00000   46.75671   32.10436   26.28501
    5249      444        2     0.00000   26.29368   33.61592   33.61092
    5250      444        2     0.00000   26.29184   46.75724   46.74593
    5251      444        2     0.00000   39.43422   33.60750   46.74646
    5252      444        2     0.00000   39.43842   46.75724   33.60514
    5253      444        2     0.00000   26.29184   45.25094   45.23885
    5254      444        2     0.00000   26.29211   32.10541   32.10436
    5255      444        2     0.00000   39.43842   45.24989   32.09463
    5256      444        2     0.00000   39.43422   32.10147   45.23858
    5257      444        2     0.00000   26.27292   45.24358   33.61407
    5258      444        2     0.00000   26.28475   32.11093   46.74751
    5259      444        2     0.00000   39.41897   45.24805   46.75277
    5260      444        2     0.00000   39.42659   32.11120   33.61434
    5261      444        2     0.00000   26.28291   33.62012   45.23464
    5262      444        2     0.00000   26.27160   46.75329   32.10410
    5263      444        2     0.00000   39.42948   33.62249   32.10410
    5264      444        2     0.00000   39.41976   46.75881   45.24437
    5265      444        2     0.00000   33.61329   26.28711   33.61854
    5266      444        2     0.00000   33.61329   39.43106   46.75224
    5267      444        2     0.00000   46.75487   26.28133   46.77012
    5268      444        2     0.00000   46.75960   39.42554   33.62696
    5269      444        2     0.00000   45.24542   26.28080   45.25883
    5270      444        2     0.00000   45.24857   39.42475   32.11856
    5271      444        2     0.00000   32.10462   26.28816   32.10778
    5272      444        2     0.00000   32.10278   39.43080   45.24121
    5273      444        2     0.00000   33.62012   26.29053   45.25015
    5274      444        2     0.00000   33.57806   39.43658   32.13380
    5275      444        2     0.00000   46.75645   26.29920   32.11856
    5276      444        2     0.00000   46.75566   39.43842   45.25804
    5277      444        2     0.00000   45.24516   26.29894   33.62748
    5278      444        2     0.00000   45.24700   39.43790   46.76828
    5279      444        2     0.00000   32.10620   26.29000   46.75697
    5280      444        2     0.00000   32.08333   39.43737   33.65771
    5281      444        3     0.00000   34.77653   30.95584   49.64969
    5282      444        3     0.00000   34.09725   31.63985   50.78113
    5283      444        3     0.00000   34.78415   44.10006   36.49207
    5284      444        3     0.00000   34.10618   44.78459   37.62377
    5285      444        3     0.00000   44.07902   47.88972   49.63865
    5286      444        3     0.00000   44.74884   47.20729   50.77350
    5287      444        3     0.00000   44.07876   34.77048   36.51600
    5288      444        3     0.00000   44.75594   34.08647   37.64611
    5289      444        3     0.00000   30.94217   34.77048   49.64023
    5290      444        3     0.00000   31.62040   34.08962   50.77350
    5291      444        3     0.00000   44.08717   30.95427   29.21663
    5292      444        3     0.00000   44.76645   31.63354   28.08310
    5293      444        3     0.00000   44.07902   44.10006   42.36374
    5294      444        3     0.00000   44.75462   44.78591   41.23205
    5295      444        3     0.00000   30.94638   30.94690   42.35822
    5296      444        3     0.00000   31.62855   31.62750   41.22652
    5297      444        3     0.00000   34.77390   47.91443   29.21953
    5298      444        3     0.00000   34.09304   47.22832   28.09046
    5299      444        3     0.00000   34.77705   34.77442   42.35533
    5300      444        3     0.00000   34.09541   34.09304   41.22574
    5301      444        3     0.00000   49.64628   34.76680   30.94796
    5302      444        3     0.00000   50.78113   34.08752   31.62487
    5303      444        3     0.00000   36.50969   34.77521   44.08507
    5304      444        3     0.00000   37.63954   34.09357   44.76751
    5305      444        3     0.00000   49.65679   44.09375   47.91443
    5306      444        3     0.00000   50.78533   44.77329   47.22832
    5307      444        3     0.00000   49.65127   30.95952   34.77837
    5308      444        3     0.00000   50.78586   31.63644   34.09909
    5309      444        3     0.00000   36.50942   44.09112   34.75707
    5310      444        3     0.00000   37.64112   44.76856   34.07569
    5311      444        3     0.00000   29.20060   44.08244   30.94980
    5312      444        3     0.00000   28.06759   44.75962   31.63249
    5313      444        3     0.00000   42.35322   44.08665   44.09979
    5314      444        3     0.00000   41.21864   44.75936   44.78301
    5315      444        3     0.00000   42.35585   30.95374   30.94717
    5316      444        3     0.00000   41.22311   31.63381   31.62618
    5317      444        3     0.00000   29.21401   34.77285   47.90602
    5318      444        3     0.00000   28.08205   34.09409   47.22464
    5319      444        3     0.00000   42.35401   34.77179   34.78047
    5320      444        3     0.00000   41.22574   34.09094   34.09593
    5321      444        3     0.00000   30.94349   49.64023   34.76496
    5322      444        3     0.00000   31.62645   50.77271   34.08673
    5323      444        3     0.00000   30.94664   36.50233   47.90943
    5324      444        3     0.00000   31.62776   37.63376   47.22910
    5325      444        3     0.00000   47.90865   49.64260   44.09559
    5326      444        3     0.00000   47.22700   50.77429   44.77513
    5327      444        3     0.00000   47.91338   36.49681   30.95269
    5328      444        3     0.00000   47.23226   37.62771   31.63591
    5329      444        3     0.00000   34.77758   49.65311   30.94559
    5330      444        3     0.00000   34.09593   50.78402   31.62750
    5331      444        3     0.00000   30.94428   29.21637   44.09138
    5332      444        3     0.00000   31.62356   28.08442   44.77408
    5333      444        3     0.00000   30.93744   42.35796   30.95111
    5334      444        3     0.00000   31.62277   41.23205   31.63749
    5335      444        3     0.00000   47.91601   29.23214   34.77626
    5336      444        3     0.00000   47.23673   28.09835   34.09804
    5337      444        3     0.00000   47.92179   42.36453   47.92337
    5338      444        3     0.00000   47.23699   41.23310   47.24409
    5339      444        3     0.00000   34.77784   42.36111   34.76680
    5340      444        3     0.00000   34.09173   41.22994   34.09488
    5341      444        3     0.00000   30.94559   34.78573   29.21111
    5342      444        3     0.00000   31.62855   34.10802   28.07995
    5343      444        3     0.00000   30.96057   47.92126   42.35060
    5344      444        3     0.00000   31.64275   47.24488   41.21890
    5345      444        3     0.00000   47.89655   44.06588   29.21006
    5346      444        3     0.00000   47.20939   44.74490   28.07942
    5347      444        3     0.00000   47.90339   30.93928   42.36611
    5348      444        3     0.00000   47.22122   31.61541   41.23231
    5349      444        3     0.00000   34.75655   30.96031   29.22689
    5350      444        3     0.00000   34.07911   31.63512   28.08967
    5351      444        3     0.00000   30.94769   44.08796   49.64812
    5352      444        3     0.00000   31.62908   44.76251   50.78402
    5353      444        3     0.00000   30.94980   30.94822   36.50364
    5354      444        3     0.00000   31.63144   31.62986   37.63376
    5355      444        3     0.00000   47.91154   34.77153   49.64128
    5356      444        3     0.00000   47.23042   34.09304   50.77403
    5357      444        3     0.00000   47.90313   47.92731   36.50969
    5358      444        3     0.00000   47.21806   47.25145   37.64086
    5359      444        3     0.00000   34.77469   34.78205   36.50390
    5360      444        3     0.00000   34.09225   34.09961   37.63455
    5361      444        3     0.00000   34.76601   49.64917   47.92731
    5362      444        3     0.00000   34.08726   50.78323   47.24751
    5363      444        3     0.00000   34.77521   36.51442   34.77311
    5364      444        3     0.00000   34.09278   37.64611   34.09830
    5365      444        3     0.00000   44.10111   49.65285   30.95295
    5366      444        3     0.00000   44.78091   50.78638   31.63144
    5367      444        3     0.00000   44.08901   36.51468   44.09769
    5368      444        3     0.00000   44.76698   37.64427   44.78196
    5369      444        3     0.00000   30.94428   36.50916   30.94743
    5370      444        3     0.00000   31.62540   37.63770   31.63433
    5371      444        3     0.00000   44.08639   29.21295   47.91574
    5372      444        3     0.00000   44.76330   28.07705   47.23962
    5373      444        3     0.00000   44.08954   42.35428   34.77863
    5374      444        3     0.00000   44.76803   41.22179   34.09935
    5375      444        3     0.00000   30.94454   29.20901   34.78099
    5376      444        3     0.00000   31.62592   28.07811   34.10119
    5377      444        3     0.00000   34.75786   29.23136   30.96031
    5378      444        3     0.00000   34.08358   28.09256   31.63565
    5379      444        3     0.00000   34.77127   42.35690   44.08271
    5380      444        3     0.00000   34.09094   41.22679   44.76566
    5381      444        3     0.00000   49.63892   30.94585   44.09375
    5382      444        3     0.00000   50.77376   31.62776   44.76803
    5383      444        3     0.00000   36.49129   30.96005   30.95505
    5384      444        3     0.00000   37.62771   31.63696   31.63118
    5385      444        3     0.00000   49.63629   47.91312   34.77994
    5386      444        3     0.00000   50.76535   47.22464   34.10066
    5387      444        3     0.00000   36.49076   47.90891   47.92416
    5388      444        3     0.00000   37.62061   47.22174   47.24514
    5389      444        3     0.00000   36.50522   34.78415   34.77258
    5390      444        3     0.00000   37.63455   34.10303   34.09067
    5391      444        3     0.00000   29.22005   30.94612   34.77074
    5392      444        3     0.00000   28.09125   31.62724   34.08621
    5393      444        3     0.00000   42.36137   30.94848   47.91180
    5394      444        3     0.00000   41.23099   31.62960   47.23147
    5395      444        3     0.00000   29.22505   47.91811   44.07902
    5396      444        3     0.00000   28.08994   47.23646   44.75778
    5397      444        3     0.00000   29.21532   34.77705   30.94428
    5398      444        3     0.00000   28.08573   34.09435   31.62566
    5399      444        3     0.00000   42.37241   47.91837   30.94717
    5400      444        3     0.00000   41.23730   47.23778   31.62356
    5401      444        3     0.00000   44.10689   47.93152   29.21374
    5402      444        3     0.00000   44.79695   47.26223   28.07942
    5403      444        3     0.00000   44.09664   34.78441   42.36663
    5404      444        3     0.00000   44.78065   34.10329   41.23730
    5405      444        3     0.00000   34.76470   44.08271   42.34797
    5406      444        3     0.00000   34.08095   44.75936   41.21706
    5407      444        3     0.00000   34.76259   47.91548   49.65679
    5408      444        3     0.00000   34.08384   47.23305   50.78770
    5409      444        3     0.00000   44.09164   30.94822   49.64233
    5410      444        3     0.00000   44.77224   31.62724   50.77455
    5411      444        3     0.00000   44.09874   44.08691   36.50574
    5412      444        3     0.00000   44.78170   44.76225   37.63875
    5413      444        3     0.00000   29.22005   44.09637   47.91154
    5414      444        3     0.00000   28.08888   44.77749   47.22910
    5415      444        3     0.00000   42.36716   44.09532   34.77258
    5416      444        3     0.00000   41.23599   44.77802   34.09015
    5417      444        3     0.00000   42.36058   34.78283   44.09375
    5418      444        3     0.00000   41.22942   34.10172   44.77381
    5419      444        3     0.00000   49.64286   34.76943   47.91022
    5420      444        3     0.00000   50.77455   34.08962   47.22937
    5421      444        3     0.00000   49.63077   44.08849   30.94138
    5422      444        3     0.00000   50.76141   44.77802   31.61646
    5423      444        3     0.00000   36.49759   44.09375   44.07640
    5424      444        3     0.00000   37.62587   44.78117   44.75489
    5425      444        3     0.00000   47.90602   29.21690   44.10584
    5426      444        3     0.00000   47.22963   28.08336   44.78748
    5427      444        3     0.00000   47.90812   42.34744   30.95032
    5428      444        3     0.00000   47.23147   41.21838   31.63591
    5429      444        3     0.00000   30.94743   42.36085   47.91285
    5430      444        3     0.00000   31.62724   41.22810   47.23173
    5431      444        3     0.00000   47.91811   49.65942   34.78205
    5432      444        3     0.00000   47.23857   50.79190   34.10145
    5433      444        3     0.00000   47.91785   36.50548   47.91259
    5434      444        3     0.00000   47.24146   37.64059   47.23410
    5435      444        3     0.00000   30.96136   49.64733   44.08349
    5436      444        3     0.00000   31.64222   50.77850   44.76461
    5437      444        3     0.00000   47.92941   44.10531   49.64575
    5438      444        3     0.00000   47.25381   44.79248   50.77482
    5439      444        3     0.00000   47.91154   30.97030   36.49943
    5440      444        3     0.00000   47.23594   31.64643   37.63560
    5441      444        3     0.00000   30.93481   47.90707   36.49549
    5442      444        3     0.00000   31.61409   47.22279   37.62640
    5443      444        3     0.00000   47.91443   34.76811   29.21742
    5444      444        3     0.00000   47.23568   34.08857   28.08310
    5445      444        3     0.00000   47.91653   47.91049   42.36453
    5446      444        3     0.00000   47.24120   47.22569   41.23283
    5447      444        3     0.00000   30.93429   44.08901   29.21979
    5448      444        3     0.00000   31.61909   44.77276   28.09178
    5449      444        3     0.00000   44.09112   29.22636   30.95242
    5450      444        3     0.00000   44.77224   28.09598   31.63617
    5451      444        3     0.00000   44.09296   42.36505   44.09243
    5452      444        3     0.00000   44.77855   41.23494   44.77145
    5453      444        3     0.00000   34.77311   29.22400   47.91653
    5454      444        3     0.00000   34.09304   28.09151   47.23410
    5455      444        3     0.00000   34.77758   36.50574   44.08533
    5456      444        3     0.00000   34.09541   37.63560   44.76777
    5457      444        3     0.00000   44.09112   49.62893   47.91706
    5458      444        3     0.00000   44.77303   50.76509   47.24435
    5459      444        3     0.00000   44.08507   36.50285   34.78625
    5460      444        3     0.00000   44.76882   37.63165   34.10461
    5461      444        3     0.00000   29.20428   47.91706   34.76233
    5462      444        3     0.00000   28.07101   47.24093   34.07884
    5463      444        3     0.00000   42.35086   47.90865   47.90575
    5464      444        3     0.00000   41.21548   47.24041   47.22148
    5465      444        3     0.00000   29.21295   30.94769   44.08717
    5466      444        3     0.00000   28.08073   31.62881   44.76566
    5467      444        3     0.00000   49.64733   47.91969   44.09348
    5468      444        3     0.00000   50.78165   47.24199   44.77092
    5469      444        3     0.00000   36.50837   47.92284   30.94717
    5470      444        3     0.00000   37.64112   47.24330   31.62645
    5471      444        3     0.00000   36.50785   30.95269   47.92021
    5472      444        3     0.00000   37.63796   31.63538   47.23883
    5473      444        3     0.00000   35.93162   31.51367   49.07346
    5474      444        4     0.00000   36.35459   32.41640   49.49617
    5475      444        3     0.00000   35.93819   44.65473   35.91243
    5476      444        4     0.00000   36.36169   45.55930   36.33067
    5477      444        3     0.00000   42.92472   47.33610   49.05559
    5478      444        4     0.00000   42.49150   46.43547   49.47567
    5479      444        3     0.00000   42.92788   34.21055   35.93503
    5480      444        4     0.00000   42.50438   33.30730   36.35590
    5481      444        3     0.00000   29.77893   47.35266   35.91689
    5482      444        4     0.00000   29.35228   46.45151   36.34039
    5483      444        3     0.00000   42.93287   31.51420   29.79339
    5484      444        4     0.00000   42.50964   32.41666   29.37016
    5485      444        3     0.00000   42.92551   44.65368   42.94628
    5486      444        4     0.00000   42.49860   45.55614   42.52620
    5487      444        3     0.00000   29.77998   44.64737   29.79891
    5488      444        4     0.00000   29.35570   45.54957   29.37778
    5489      444        3     0.00000   35.92636   47.35555   29.79917
    5490      444        4     0.00000   36.34591   46.44862   29.38199
    5491      444        3     0.00000   35.93162   34.21449   42.93182
    5492      444        4     0.00000   36.35485   33.31308   42.50727
    5493      444        3     0.00000   49.06715   35.91795   31.51236
    5494      444        4     0.00000   49.48986   36.33908   32.41614
    5495      444        3     0.00000   49.06453   49.06952   44.65631
    5496      444        4     0.00000   49.48566   49.49381   45.55930
    5497      444        3     0.00000   35.93162   35.92820   44.64553
    5498      444        4     0.00000   36.35249   36.35012   45.54931
    5499      444        3     0.00000   49.07346   42.94128   47.35791
    5500      444        4     0.00000   49.48750   42.52094   46.45177
    5501      444        3     0.00000   49.07478   29.80391   34.22054
    5502      444        4     0.00000   49.50196   29.37515   33.32228
    5503      444        3     0.00000   35.92899   29.79970   47.35870
    5504      444        4     0.00000   36.35143   29.37699   46.45571
    5505      444        3     0.00000   29.78104   42.93077   31.50920
    5506      444        4     0.00000   29.35964   42.50622   32.41088
    5507      444        3     0.00000   29.79103   29.79549   44.65052
    5508      444        4     0.00000   29.36937   29.37620   45.55562
    5509      444        3     0.00000   29.79365   35.92557   47.34687
    5510      444        4     0.00000   29.37200   36.35012   46.44415
    5511      444        3     0.00000   29.78919   49.06663   34.20214
    5512      444        4     0.00000   29.36937   49.49065   33.29888
    5513      444        3     0.00000   31.50105   49.05927   35.91847
    5514      444        4     0.00000   32.40588   49.47803   36.34118
    5515      444        3     0.00000   44.64842   49.04034   49.06610
    5516      444        4     0.00000   45.54931   49.45700   49.49617
    5517      444        3     0.00000   44.64290   35.92399   35.94029
    5518      444        4     0.00000   45.54668   36.34460   36.36379
    5519      444        3     0.00000   47.34950   49.06111   42.94312
    5520      444        4     0.00000   46.44441   49.48014   42.52068
    5521      444        3     0.00000   47.35292   35.92031   29.79812
    5522      444        4     0.00000   46.44914   36.34302   29.37725
    5523      444        3     0.00000   34.21344   49.06952   29.79576
    5524      444        4     0.00000   33.30887   49.48986   29.37489
    5525      444        3     0.00000   31.50684   29.79444   42.93839
    5526      444        4     0.00000   32.41061   29.37200   42.51700
    5527      444        3     0.00000   44.65026   29.80286   29.79707
    5528      444        4     0.00000   45.55351   29.38067   29.37436
    5529      444        3     0.00000   47.34845   29.81836   35.92136
    5530      444        4     0.00000   46.44126   29.40065   36.34013
    5531      444        3     0.00000   34.21212   29.80443   49.06873
    5532      444        4     0.00000   33.30651   29.38488   49.48618
    5533      444        3     0.00000   31.50237   35.93977   29.78866
    5534      444        4     0.00000   32.40536   36.36405   29.36858
    5535      444        3     0.00000   44.65473   35.93766   42.94549
    5536      444        4     0.00000   45.55930   36.35958   42.52488
    5537      444        3     0.00000   47.34398   42.91263   29.79287
    5538      444        4     0.00000   46.44126   42.48545   29.37515
    5539      444        3     0.00000   34.20766   42.93024   42.92919
    5540      444        4     0.00000   33.30493   42.50543   42.50885
    5541      444        3     0.00000   34.19320   29.81127   29.81022
    5542      444        4     0.00000   33.29100   29.38698   29.38777
    5543      444        3     0.00000   31.50631   42.93498   49.06873
    5544      444        4     0.00000   32.40851   42.51121   49.49118
    5545      444        3     0.00000   31.50552   29.78892   35.93319
    5546      444        4     0.00000   32.40536   29.36385   36.35958
    5547      444        3     0.00000   44.65342   42.93077   35.93056
    5548      444        4     0.00000   45.55430   42.50464   36.35433
    5549      444        3     0.00000   47.35371   35.92636   49.06400
    5550      444        4     0.00000   46.45019   36.34881   49.48513
    5551      444        3     0.00000   34.21107   35.93162   35.92242
    5552      444        4     0.00000   33.30309   36.34802   36.33987
    5553      444        3     0.00000   35.91663   49.06584   47.36396
    5554      444        4     0.00000   36.33934   49.48697   46.45992
    5555      444        3     0.00000   35.92531   35.93530   34.20844
    5556      444        4     0.00000   36.34355   36.35301   33.29967
    5557      444        3     0.00000   42.94707   49.07241   31.51183
    5558      444        4     0.00000   42.51989   49.49670   32.41324
    5559      444        3     0.00000   42.93550   35.93635   44.65526
    5560      444        4     0.00000   42.51016   36.36011   45.55667
    5561      444        3     0.00000   29.79024   35.93109   31.50500
    5562      444        4     0.00000   29.36805   36.35301   32.40851
    5563      444        3     0.00000   42.93471   29.79181   47.35397
    5564      444        4     0.00000   42.50859   29.36674   46.45414
    5565      444        3     0.00000   42.93866   42.93629   34.21659
    5566      444        4     0.00000   42.51332   42.51279   33.31544
    5567      444        3     0.00000   29.79287   29.78735   34.21712
    5568      444        4     0.00000   29.36753   29.36096   33.31702
    5569      444        3     0.00000   35.91374   29.80732   31.51761
    5570      444        4     0.00000   36.33934   29.38356   32.41876
    5571      444        3     0.00000   35.92347   42.93971   44.64132
    5572      444        4     0.00000   36.34723   42.52120   45.54589
    5573      444        3     0.00000   49.05822   31.50237   42.93997
    5574      444        4     0.00000   49.48093   32.40352   42.51305
    5575      444        3     0.00000   49.04902   44.63633   29.78498
    5576      444        4     0.00000   49.46279   45.54247   29.36148
    5577      444        3     0.00000   35.91164   31.52077   29.80233
    5578      444        4     0.00000   36.33776   32.42008   29.37541
    5579      444        3     0.00000   49.04875   47.35371   35.92820
    5580      444        4     0.00000   49.45674   46.44099   36.34223
    5581      444        3     0.00000   49.06321   34.20818   49.06242
    5582      444        4     0.00000   49.48434   33.30414   49.48461
    5583      444        3     0.00000   35.93135   34.22474   35.92925
    5584      444        4     0.00000   36.35406   33.32149   36.35301
    5585      444        3     0.00000   29.80101   31.51209   35.92005
    5586      444        4     0.00000   29.38619   32.42271   36.33251
    5587      444        3     0.00000   29.79628   44.65368   49.06821
    5588      444        4     0.00000   29.37384   45.55640   49.49223
    5589      444        3     0.00000   29.80522   47.35975   42.92551
    5590      444        4     0.00000   29.38277   46.45755   42.50070
    5591      444        3     0.00000   29.79760   34.21765   29.79287
    5592      444        4     0.00000   29.37962   33.31334   29.37068
    5593      444        3     0.00000   42.95522   47.36028   29.79287
    5594      444        4     0.00000   42.53803   46.45151   29.37384
    5595      444        3     0.00000   42.94155   34.22317   42.94128
    5596      444        4     0.00000   42.51910   33.32175   42.51647
    5597      444        3     0.00000   35.91742   44.64895   42.92262
    5598      444        4     0.00000   36.33724   45.55220   42.49781
    5599      444        3     0.00000   35.91295   47.35187   49.07793
    5600      444        4     0.00000   36.33435   46.44940   49.50143
    5601      444        3     0.00000   42.94076   31.51157   49.06269
    5602      444        4     0.00000   42.52094   32.41771   49.48224
    5603      444        3     0.00000   42.95049   44.65631   35.92347
    5604      444        4     0.00000   42.53330   45.56298   36.34381
    5605      444        3     0.00000   29.79786   42.94365   47.35003
    5606      444        4     0.00000   29.37463   42.52199   46.44704
    5607      444        3     0.00000   29.80575   49.06952   44.64237
    5608      444        4     0.00000   29.38409   49.49091   45.54589
    5609      444        3     0.00000   49.06821   35.92426   47.35055
    5610      444        4     0.00000   49.49039   36.34565   46.44678
    5611      444        3     0.00000   49.06873   49.07399   34.22133
    5612      444        4     0.00000   49.49407   49.49433   33.31860
    5613      444        3     0.00000   49.05716   42.93655   31.50973
    5614      444        4     0.00000   49.48513   42.51779   32.41219
    5615      444        3     0.00000   49.06032   29.79681   44.66235
    5616      444        4     0.00000   49.48461   29.37804   45.56666
    5617      444        3     0.00000   47.34293   29.79024   42.95127
    5618      444        4     0.00000   46.43915   29.36621   42.53172
    5619      444        3     0.00000   44.64974   29.79313   49.06610
    5620      444        4     0.00000   45.55115   29.36832   49.48881
    5621      444        3     0.00000   47.35345   49.08608   35.93530
    5622      444        4     0.00000   46.45545   49.51668   36.36037
    5623      444        3     0.00000   34.20319   49.07110   49.08030
    5624      444        4     0.00000   33.30125   49.49670   49.50301
    5625      444        3     0.00000   31.52287   49.07136   42.93077
    5626      444        4     0.00000   32.42796   49.49197   42.51016
    5627      444        3     0.00000   44.66314   49.08030   29.79917
    5628      444        4     0.00000   45.56639   49.50301   29.38067
    5629      444        3     0.00000   47.36554   42.94812   49.07530
    5630      444        4     0.00000   46.46518   42.52515   49.50301
    5631      444        3     0.00000   34.21949   42.94681   35.91742
    5632      444        4     0.00000   33.31571   42.52962   36.34276
    5633      444        3     0.00000   31.50526   35.92347   49.06321
    5634      444        4     0.00000   32.40983   36.34355   49.48566
    5635      444        3     0.00000   34.21607   35.92767   42.93235
    5636      444        4     0.00000   33.31229   36.34907   42.50911
    5637      444        3     0.00000   31.49264   42.93261   29.79313
    5638      444        4     0.00000   32.39326   42.51043   29.36700
    5639      444        3     0.00000   44.64711   42.94707   42.93787
    5640      444        4     0.00000   45.55010   42.52804   42.51200
    5641      444        3     0.00000   42.93655   29.80338   31.51131
    5642      444        4     0.00000   42.51489   29.38225   32.41535
    5643      444        3     0.00000   42.93813   42.93629   44.65710
    5644      444        4     0.00000   42.51779   42.50964   45.55930
    5645      444        3     0.00000   35.92688   42.93839   34.19793
    5646      444        4     0.00000   36.34644   42.51437   33.29336
    5647      444        3     0.00000   35.93398   49.07977   31.50395
    5648      444        4     0.00000   36.35827   49.50485   32.40562
    5649      444        3     0.00000   42.93524   49.06111   47.35213
    5650      444        4     0.00000   42.52147   49.48487   46.44546
    5651      444        3     0.00000   42.93287   35.92583   34.22290
    5652      444        4     0.00000   42.51174   36.34986   33.31991
    5653      444        3     0.00000   29.78997   34.21081   49.06006
    5654      444        4     0.00000   29.36726   33.30703   49.48040
    5655      444        3     0.00000   29.79181   31.50763   42.93366
    5656      444        4     0.00000   29.36858   32.40983   42.50911
    5657      444        3     0.00000   49.07189   47.35607   42.94128
    5658      444        4     0.00000   49.49722   46.45414   42.51989
    5659      444        3     0.00000   49.06794   34.20713   29.79444
    5660      444        4     0.00000   49.49170   33.30572   29.36989
    5661      444        3     0.00000   49.06794   31.52708   35.92531
    5662      444        4     0.00000   49.49013   32.43112   36.34644
    5663      444        3     0.00000   49.08398   44.65867   49.06768
    5664      444        4     0.00000   49.50984   45.55877   49.49302
    5665      225        5     0.00000   37.35773   35.43556   52.07002
    5666      225        6     0.00000   37.61877   36.38981   52.11655
    5667      225        6     0.00000   38.02545   35.02179   51.46671
    5668      226        5     0.00000   39.32302   28.40066   52.42727
    5669      226        6     0.00000   38.33512   28.38121   52.49431
    5670      226        6     0.00000   39.55383   27.60308   51.88706
    5671      227        5     0.00000   38.96550   36.94948   30.84464
    5672      227        6     0.00000   39.32381   37.76283   31.28181
    5673      227        6     0.00000   37.98128   37.05306   30.88960
    5674      228        5     0.00000   49.27746   43.42998   37.50574
    5675      228        6     0.00000   49.77009   44.22282   37.83775
    5676      228        6     0.00000   48.85633   43.73097   36.66084
    5677      229        5     0.00000   37.73023   47.70649   38.00153
    5678      229        6     0.00000   37.83591   46.73463   38.16162
    5679      229        6     0.00000   37.03518   47.77274   37.29885
    5680      230        5     0.00000   48.83950   52.07764   37.78518
    5681      230        6     0.00000   48.98592   51.88916   36.82383
    5682      230        6     0.00000   48.50118   51.22434   38.15741
    5683      231        5     0.00000   34.06964   26.72323   38.03780
    5684      231        6     0.00000   34.48158   26.81287   38.93422
    5685      231        6     0.00000   33.18400   26.31393   38.20841
    5686      232        5     0.00000   31.72897   27.41118   51.48012
    5687      232        6     0.00000   32.07623   28.32732   51.33291
    5688      232        6     0.00000   32.49237   26.91329   51.86813
    5689      233        5     0.00000   40.50492   43.56773   38.26966
    5690      233        6     0.00000   40.01386   44.06641   38.97050
    5691      233        6     0.00000   41.44761   43.85479   38.37218
    5692      234        5     0.00000   40.32695   35.27310   28.09966
    5693      234        6     0.00000   40.98625   34.54256   28.21270
    5694      234        6     0.00000   40.71391   35.85433   27.39699
    5695      235        5     0.00000   47.23857   41.50781   26.25925
    5696      235        6     0.00000   47.41785   41.10665   27.14673
    5697      235        6     0.00000   48.05586   42.02594   26.04842
    5698      236        5     0.00000   46.98988   32.68953   46.19809
    5699      236        6     0.00000   47.95938   32.56650   46.35871
    5700      236        6     0.00000   46.56218   32.47318   47.06507
    5701      237        5     0.00000   52.38127   29.95822   48.60475
    5702      237        6     0.00000   52.95408   30.21347   49.37157
    5703      237        6     0.00000   51.70041   29.35097   48.99013
    5704      238        5     0.00000   40.44972   38.86929   43.19076
    5705      238        6     0.00000   39.94762   39.69420   43.41158
    5706      238        6     0.00000   40.05330   38.55515   42.33903
    5707      239        5     0.00000   49.48355   28.87016   38.38743
    5708      239        6     0.00000   48.54087   28.62805   38.57118
    5709      239        6     0.00000   49.97251   28.58730   39.20025
    5710      240        5     0.00000   36.34302   27.45298   28.64277
    5711      240        6     0.00000   36.20186   26.81681   29.38935
    5712      240        6     0.00000   35.44030   27.59283   28.26002
    5713      241        5     0.00000   51.82607   46.54483   37.86483
    5714      241        6     0.00000   52.61418   47.14235   37.80857
    5715      241        6     0.00000   51.18517   47.02905   38.44474
    5716      242        5     0.00000   40.97574   48.88077   41.14766
    5717      242        6     0.00000   40.56749   48.06322   41.52989
    5718      242        6     0.00000   40.37690   49.61710   41.43157
    5719      243        5     0.00000   34.06281   34.77285   31.47030
    5720      243        6     0.00000   34.80150   34.33541   31.96372
    5721      243        6     0.00000   33.57596   35.29440   32.15746
    5722      244        5     0.00000   43.40579   30.39328   43.87424
    5723      244        6     0.00000   43.23808   30.67141   42.93866
    5724      244        6     0.00000   43.19812   29.42484   43.88896
    5725      245        5     0.00000   48.41548   50.35368   50.39469
    5726      245        6     0.00000   48.21700   50.09922   49.45832
    5727      245        6     0.00000   47.75013   49.85868   50.93622
    5728      246        5     0.00000   52.06818   52.30582   38.30936
    5729      246        6     0.00000   52.58500   51.65546   37.76993
    5730      246        6     0.00000   51.54295   51.74931   38.93816
    5731      247        5     0.00000   32.14064   39.68185   41.14819
    5732      247        6     0.00000   32.32202   38.73285   41.36717
    5733      247        6     0.00000   32.83990   39.92580   40.49046
    5734      248        5     0.00000   36.74891   36.95868   39.53595
    5735      248        6     0.00000   36.16190   36.41768   40.12243
    5736      248        6     0.00000   37.42976   37.34038   40.14583
    5737      249        5     0.00000   51.92675   26.65278   31.45558
    5738      249        6     0.00000   51.35315   26.30052   30.72871
    5739      249        6     0.00000   52.59683   27.21823   30.99449
    5740      250        5     0.00000   43.02041   40.61323   37.86614
    5741      250        6     0.00000   42.81247   39.64504   37.83539
    5742      250        6     0.00000   42.28330   41.04461   37.36457
    5743      251        5     0.00000   40.11350   33.91533   40.64083
    5744      251        6     0.00000   39.66450   34.79808   40.63873
    5745      251        6     0.00000   40.06513   33.60671   39.70078
    5746      252        5     0.00000   28.05970   33.01497   39.16687
    5747      252        6     0.00000   27.62201   32.13091   39.25598
    5748      252        6     0.00000   27.93720   33.26077   38.21498
    5749      253        5     0.00000   45.12581   46.62948   45.56403
    5750      253        6     0.00000   45.91445   46.91470   46.09110
    5751      253        6     0.00000   44.92944   47.39814   44.97097
    5752      254        5     0.00000   37.27335   48.14235   26.70483
    5753      254        6     0.00000   36.53782   47.68310   26.22639
    5754      254        6     0.00000   36.91110   49.03876   26.92170
    5755      255        5     0.00000   43.02514   30.58597   35.31937
    5756      255        6     0.00000   42.11926   30.18771   35.36590
    5757      255        6     0.00000   43.44417   30.35858   36.18792
    5758      256        5     0.00000   45.91892   39.54252   39.50020
    5759      256        6     0.00000   46.74804   39.65372   38.96997
    5760      256        6     0.00000   45.74778   40.43710   39.88926

