# LAMMPS data file written by OVITO Basic 3.5.4
8064 atoms
6 atom types

           0.000000  52.575800 xlo xhi
           0.000000  52.575800 ylo yhi
           0.000000  52.575800 zlo zhi
           0.000000   0.000000   0.000000 xy xz yz

Masses

    1    15.999400000 # O_2
    2    63.546000000 # Cu4+2
    3    12.010700000 # C_R
    4     1.007940000 # H_
    5    15.999400000 # O_3
    6     1.007940000 # H_
    
Atoms  # charge

       1      444        1     0.00000    8.29383    6.41951   24.94406
       2      444        1     0.00000    8.32380   19.58238   11.81930
       3      444        1     0.00000   21.44751    6.41083   11.80116
       4      444        1     0.00000   21.39677   19.56240   24.95905
       5      444        1     0.00000   18.03271   19.85578   24.90884
       6      444        1     0.00000   18.03823    6.70893   11.81142
       7      444        1     0.00000    4.86668   19.82029   11.81536
       8      444        1     0.00000    4.87956    6.67187   24.98034
       9      444        1     0.00000   18.03560    6.41267    1.30966
      10      444        1     0.00000   18.07372   19.58764   14.45256
      11      444        1     0.00000    4.87825    6.41582   14.45519
      12      444        1     0.00000    4.91058   19.56766    1.29810
      13      444        1     0.00000    8.26623   19.92859    1.30230
      14      444        1     0.00000    8.26860    6.73391   14.47280
      15      444        1     0.00000   21.42464   19.92334   14.46255
      16      444        1     0.00000   21.39914    6.73680    1.33858
      17      444        1     0.00000   24.96168    8.27070    6.45394
      18      444        1     0.00000   24.97377   21.43226   19.59185
      19      444        1     0.00000   11.82640    8.31355   19.57108
      20      444        1     0.00000   11.83744   21.46985    6.37166
      21      444        1     0.00000   24.95694   18.01063   19.87392
      22      444        1     0.00000   24.97377    4.79228    6.67529
      23      444        1     0.00000   11.85821   18.01930    6.68265
      24      444        1     0.00000   11.82377    4.85669   19.81503
      25      444        1     0.00000    1.30362   18.01957    6.36062
      26      444        1     0.00000    1.31913    4.86458   19.53953
      27      444        1     0.00000   14.47201   17.99118   19.50457
      28      444        1     0.00000   14.51933    4.88955    6.44290
      29      444        1     0.00000    1.34305    8.25782   19.87129
      30      444        1     0.00000    1.33569   21.38416    6.70263
      31      444        1     0.00000   14.46649    8.26965    6.71209
      32      444        1     0.00000   14.49909   21.40492   19.77954
      33      444        1     0.00000    6.42713   24.95905    8.30671
      34      444        1     0.00000    6.43922   11.81010   21.45145
      35      444        1     0.00000   19.53428   25.00426   21.38258
      36      444        1     0.00000   19.50720   11.86504    8.30224
      37      444        1     0.00000   19.89994   25.01083   18.02798
      38      444        1     0.00000   19.83632   11.81115    4.94160
      39      444        1     0.00000    6.72103   24.99559    4.88771
      40      444        1     0.00000    6.70131   11.82771   18.01457
      41      444        1     0.00000    6.41556    1.30362   17.98592
      42      444        1     0.00000    6.41819   14.45624    4.84933
      43      444        1     0.00000   19.60499    1.31729    4.84880
      44      444        1     0.00000   19.58554   14.45282   17.98986
      45      444        1     0.00000   19.86340    1.25788    8.31407
      46      444        1     0.00000   19.84290   14.45940   21.42122
      47      444        1     0.00000    6.72234    1.30756   21.40308
      48      444        1     0.00000    6.74626   14.46755    8.24494
      49      444        1     0.00000    6.44054    8.26071    1.30703
      50      444        1     0.00000    6.45210   21.41807   14.46649
      51      444        1     0.00000   19.58711    8.29199   14.43101
      52      444        1     0.00000   19.51377   21.47143    1.23816
      53      444        1     0.00000   19.81766   18.04244    1.33989
      54      444        1     0.00000   19.88864    4.87483   14.44362
      55      444        1     0.00000    6.70552   17.96489   14.45677
      56      444        1     0.00000    6.74863    4.83066    1.32570
      57      444        1     0.00000    6.43055   18.04796   24.95615
      58      444        1     0.00000    6.42713    4.89612   11.83034
      59      444        1     0.00000   19.60157   18.10895   11.77461
      60      444        1     0.00000   19.55557    4.90848   24.96352
      61      444        1     0.00000   19.90099    8.29147   24.98271
      62      444        1     0.00000   19.96934   21.45329   11.84717
      63      444        1     0.00000    6.75336    8.27622   11.83376
      64      444        1     0.00000    6.77097   21.41202   24.94590
      65      444        1     0.00000    8.29410   24.96246   19.83448
      66      444        1     0.00000    8.28384   11.81799    6.71025
      67      444        1     0.00000   21.40887   24.91120    6.65373
      68      444        1     0.00000   21.42884   11.82666   19.85683
      69      444        1     0.00000   17.98355   24.98560    6.38296
      70      444        1     0.00000   18.00248   11.81773   19.55531
      71      444        1     0.00000    4.86642   24.95773   19.56451
      72      444        1     0.00000    4.88718   11.81589    6.39795
      73      444        1     0.00000   18.02982    1.35067   19.88469
      74      444        1     0.00000   18.01247   14.50303    6.73811
      75      444        1     0.00000    4.87430    1.31965    6.75573
      76      444        1     0.00000    4.85117   14.44257   19.88496
      77      444        1     0.00000    8.29199    1.32701    6.46472
      78      444        1     0.00000    8.27701   14.46203   19.60131
      79      444        1     0.00000   21.39388    1.35330   19.55688
      80      444        1     0.00000   21.37154   14.45966    6.39716
      81      444        1     0.00000   24.97824    6.42634   18.00826
      82      444        1     0.00000   24.96930   19.53033    4.85853
      83      444        1     0.00000   11.87346    6.38428    4.82514
      84      444        1     0.00000   11.81352   19.56687   17.98382
      85      444        1     0.00000   24.97166   19.86997    8.21891
      86      444        1     0.00000   24.98875    6.72103   21.41649
      87      444        1     0.00000   11.86110   19.85998   21.38836
      88      444        1     0.00000   11.84270    6.71446    8.25598
      89      444        1     0.00000    1.32386    6.43239    8.29252
      90      444        1     0.00000    1.31150   19.55846   21.43489
      91      444        1     0.00000   14.45282    6.45946   21.42096
      92      444        1     0.00000   14.51171   19.66440    8.19893
      93      444        1     0.00000    1.31255   19.85157   18.01483
      94      444        1     0.00000    1.31860    6.67976    4.82856
      95      444        1     0.00000   14.44257   19.89547    4.78676
      96      444        1     0.00000   14.46465    6.70157   17.96016
      97      444        1     0.00000   17.95411   19.90940    1.24578
      98      444        1     0.00000   18.03587    6.71656   14.43889
      99      444        1     0.00000    4.88876   19.85604   14.45545
     100      444        1     0.00000    4.87798    6.69868    1.30388
     101      444        1     0.00000    8.32301    6.38375    1.30519
     102      444        1     0.00000    8.26965   19.52849   14.45940
     103      444        1     0.00000   21.44462    6.44606   14.45782
     104      444        1     0.00000   21.38573   19.60420    1.33201
     105      444        1     0.00000    8.33668   19.85262   24.95589
     106      444        1     0.00000    8.31565    6.71209   11.83876
     107      444        1     0.00000   21.51559   19.87628   11.83061
     108      444        1     0.00000   21.44961    6.71104   24.97797
     109      444        1     0.00000   18.02193    6.49837   24.93670
     110      444        1     0.00000   18.03560   19.66861   11.80222
     111      444        1     0.00000    4.86352    6.45999   11.82430
     112      444        1     0.00000    4.86642   19.61104   24.94801
     113      444        1     0.00000    1.30519   17.99827   19.86892
     114      444        1     0.00000    1.33727    4.86931    6.72760
     115      444        1     0.00000   14.50882   18.08397    6.65583
     116      444        1     0.00000   14.46150    4.89533   19.85841
     117      444        1     0.00000    1.31545    8.24073    6.39322
     118      444        1     0.00000    1.32517   21.41228   19.58028
     119      444        1     0.00000   14.46492    8.26597   19.52218
     120      444        1     0.00000   14.43495   21.47301    6.33828
     121      444        1     0.00000   24.99086    8.28936   19.85893
     122      444        1     0.00000   24.98560   21.43673    6.65820
     123      444        1     0.00000   11.83718    8.27412    6.69343
     124      444        1     0.00000   11.86110   21.42832   19.83185
     125      444        1     0.00000   24.95326   17.97041    6.42555
     126      444        1     0.00000   24.97535    4.86063   19.56950
     127      444        1     0.00000   11.83797   18.00090   19.54505
     128      444        1     0.00000   11.86741    4.83329    6.40426
     129      444        1     0.00000   19.83764    1.35409   17.98592
     130      444        1     0.00000   19.80714   14.45703    4.83645
     131      444        1     0.00000    6.72392    1.33306    4.90690
     132      444        1     0.00000    6.70893   14.46071   18.04270
     133      444        1     0.00000    6.43317    1.31571    8.32196
     134      444        1     0.00000    6.41845   14.45177   21.44383
     135      444        1     0.00000   19.58606    1.35225   21.45250
     136      444        1     0.00000   19.58107   14.51013    8.29778
     137      444        1     0.00000   19.88653   24.95984    8.25598
     138      444        1     0.00000   19.85814   11.81957   21.41228
     139      444        1     0.00000    6.73864   24.96062   21.40308
     140      444        1     0.00000    6.72103   11.82219    8.27228
     141      444        1     0.00000    6.42266   24.95721   17.99407
     142      444        1     0.00000    6.44500   11.80879    4.83224
     143      444        1     0.00000   19.54216   24.97903    4.81594
     144      444        1     0.00000   19.57581   11.81957   18.00406
     145      444        1     0.00000   19.84684   17.98960   24.97482
     146      444        1     0.00000   19.88049    4.85327   11.82062
     147      444        1     0.00000    6.76887   18.01299   11.81536
     148      444        1     0.00000    6.73549    4.85327   24.95274
     149      444        1     0.00000    6.44632    8.23311   24.96877
     150      444        1     0.00000    6.42266   21.39204   11.82509
     151      444        1     0.00000   19.58843    8.28516   11.80169
     152      444        1     0.00000   19.59316   21.42438   24.91751
     153      444        1     0.00000   19.85657    8.31802    1.32149
     154      444        1     0.00000   19.86182   21.48457   14.47307
     155      444        1     0.00000    6.70394    8.29646   14.46833
     156      444        1     0.00000    6.69737   21.48747    1.29284
     157      444        1     0.00000    6.47708   18.00931    1.30993
     158      444        1     0.00000    6.44290    4.85380   14.45966
     159      444        1     0.00000   19.61735   18.00879   14.41865
     160      444        1     0.00000   19.59737    4.84381    1.30703
     161      444        1     0.00000   18.08581    1.36750    6.45421
     162      444        1     0.00000   18.00958   14.45808   19.54006
     163      444        1     0.00000    4.85958    1.30414   19.55557
     164      444        1     0.00000    4.86274   14.46176    6.41951
     165      444        1     0.00000    8.27937    1.31071   19.83317
     166      444        1     0.00000    8.30461   14.46597    6.67870
     167      444        1     0.00000   21.42359    1.25420    6.74679
     168      444        1     0.00000   21.41333   14.45992   19.86577
     169      444        1     0.00000    8.28857   24.97429    6.44579
     170      444        1     0.00000    8.26754   11.82509   19.57607
     171      444        1     0.00000   21.45224   25.00899   19.60052
     172      444        1     0.00000   21.40256   11.81930    6.50284
     173      444        1     0.00000   17.98013   25.00032   19.80925
     174      444        1     0.00000   17.94386   11.85900    6.74101
     175      444        1     0.00000    4.87036   24.97403    6.73733
     176      444        1     0.00000    4.87483   11.80458   19.88969
     177      444        1     0.00000    1.31545   19.82108    8.26544
     178      444        1     0.00000    1.33595    6.68370   21.42385
     179      444        1     0.00000   14.49646   19.84999   21.35130
     180      444        1     0.00000   14.45466    6.70972    8.28253
     181      444        1     0.00000    1.32885    6.43396   17.98224
     182      444        1     0.00000    1.31913   19.58764    4.80148
     183      444        1     0.00000   14.51960    6.44895    4.87903
     184      444        1     0.00000   14.45204   19.54190   17.92993
     185      444        1     0.00000   24.96299   19.87102   18.02640
     186      444        1     0.00000   24.96141    6.71892    4.87825
     187      444        1     0.00000   11.82561   19.89731    4.82120
     188      444        1     0.00000   11.82535    6.75047   18.00695
     189      444        1     0.00000   24.97272    6.35326    8.24047
     190      444        1     0.00000   24.96194   19.56976   21.44041
     191      444        1     0.00000   11.81851    6.41977   21.37863
     192      444        1     0.00000   11.84664   19.59369    8.23758
     193      444        2     0.00000    7.37034    7.31066    0.00289
     194      444        2     0.00000    7.34011   20.45356   13.14316
     195      444        2     0.00000   20.51771    7.35194   13.11792
     196      444        2     0.00000   20.45777   20.48195   -0.01866
     197      444        2     0.00000   18.92676   18.94911   -0.01498
     198      444        2     0.00000   19.00983    5.83749   13.12870
     199      444        2     0.00000    5.83039   18.93675   13.13580
     200      444        2     0.00000    5.83828    5.77440    0.00920
     201      444        2     0.00000   18.93728    7.38217    0.00289
     202      444        2     0.00000   19.02087   20.51219   13.14264
     203      444        2     0.00000    5.82461    7.33616   13.14526
     204      444        2     0.00000    5.84275   20.48879   -0.02261
     205      444        2     0.00000    7.34615   18.99222   -0.01341
     206      444        2     0.00000    7.33354    5.82750   13.15052
     207      444        2     0.00000   20.50351   19.01351   13.12423
     208      444        2     0.00000   20.46198    5.83486    0.00421
     209      444        2     0.00000   -0.00079    7.29410    7.31540
     210      444        2     0.00000   -0.00053   20.46750   20.48642
     211      444        2     0.00000   13.14080    7.33800   20.44752
     212      444        2     0.00000   13.14553   20.52822    7.28806
     213      444        2     0.00000   -0.00920   18.96330   18.97697
     214      444        2     0.00000   -0.00210    5.78229    5.80384
     215      444        2     0.00000   13.15000   18.98775    5.76415
     216      444        2     0.00000   13.14342    5.82987   18.93938
     217      444        2     0.00000   -0.00999   18.94648    7.28990
     218      444        2     0.00000    0.01104    5.81804   20.45093
     219      444        2     0.00000   13.16629   18.95568   20.41676
     220      444        2     0.00000   13.16025    5.79780    7.31619
     221      444        2     0.00000    0.01630    7.33432   18.94700
     222      444        2     0.00000    0.00736   20.45777    5.78308
     223      444        2     0.00000   13.15788    7.32828    5.78202
     224      444        2     0.00000   13.15604   20.46040   18.90705
     225      444        2     0.00000    7.36166   -0.00237    7.38559
     226      444        2     0.00000    7.32565   13.13764   20.49168
     227      444        2     0.00000   20.46329    0.03523   20.46855
     228      444        2     0.00000   20.43385   13.16340    7.34247
     229      444        2     0.00000   18.96120    0.03523   18.95042
     230      444        2     0.00000   18.92466   13.15762    5.83854
     231      444        2     0.00000    5.84459    0.01025    5.86667
     232      444        2     0.00000    5.81304   13.13422   18.98565
     233      444        2     0.00000    7.32749   -0.01052   18.93701
     234      444        2     0.00000    7.34300   13.13738    5.78728
     235      444        2     0.00000   20.47459   -0.02918    5.78676
     236      444        2     0.00000   20.46855   13.13948   18.96094
     237      444        2     0.00000   18.97434   -0.01919    7.30383
     238      444        2     0.00000   18.95463   13.13843   20.45646
     239      444        2     0.00000    5.82855   -0.01130   20.44936
     240      444        2     0.00000    5.84012   13.14185    7.29778
     241      444        3     0.00000    8.49967    4.64481   23.33761
     242      444        3     0.00000    7.82065    5.32908   24.47035
     243      444        3     0.00000    8.55014   17.79060   10.21890
     244      444        3     0.00000    7.86113   18.48513   11.34507
     245      444        3     0.00000   17.82819   21.62837   23.29450
     246      444        3     0.00000   18.51010   20.94567   24.43040
     247      444        3     0.00000   17.77746    8.50230   10.23703
     248      444        3     0.00000   18.49170    7.80908   11.34139
     249      444        3     0.00000    4.65322    8.46470   23.39597
     250      444        3     0.00000    5.34775    7.76597   24.50768
     251      444        3     0.00000   17.82661    4.65217    2.91848
     252      444        3     0.00000   18.50694    5.31936    1.78101
     253      444        3     0.00000   17.82767   17.78008   16.01301
     254      444        3     0.00000   18.52981   18.48039   14.90366
     255      444        3     0.00000    4.63009    4.61537   16.02169
     256      444        3     0.00000    5.34039    5.31620   14.91943
     257      444        3     0.00000    8.49309   21.70986    2.88326
     258      444        3     0.00000    7.79410   21.02349    1.76655
     259      444        3     0.00000    8.48521    8.51123   16.06532
     260      444        3     0.00000    7.79594    7.82512   14.94362
     261      444        3     0.00000   23.34918    8.49467    4.68135
     262      444        3     0.00000   24.48324    7.80514    5.35958
     263      444        3     0.00000   10.22284    8.52017   17.79165
     264      444        3     0.00000   11.35164    7.84115   18.47934
     265      444        3     0.00000   23.37520   17.77430   21.66649
     266      444        3     0.00000   24.49060   18.47435   20.97196
     267      444        3     0.00000   23.38282    4.57462    8.47943
     268      444        3     0.00000   24.50243    5.25942    7.77228
     269      444        3     0.00000   10.26832   17.79743    8.47128
     270      444        3     0.00000   11.38634   18.49117    7.77570
     271      444        3     0.00000    2.91428   17.79822    4.60143
     272      444        3     0.00000    1.78442   18.49117    5.27309
     273      444        3     0.00000   16.05875   17.76273   17.71226
     274      444        3     0.00000   14.93153   18.45174   18.40127
     275      444        3     0.00000   16.13683    4.69108    4.68845
     276      444        3     0.00000   15.00172    5.36720    5.36063
     277      444        3     0.00000    2.92663    8.46970   21.66307
     278      444        3     0.00000    1.81018    7.78017   20.96381
     279      444        3     0.00000   16.04035    8.49599    8.51097
     280      444        3     0.00000   14.92785    7.80225    7.81224
     281      444        3     0.00000    4.64008   23.35995    8.50992
     282      444        3     0.00000    5.33434   24.49060    7.82827
     283      444        3     0.00000    4.65795   10.20549   21.67122
     284      444        3     0.00000    5.34696   11.33271   20.98248
     285      444        3     0.00000   21.66990   23.41411   17.81110
     286      444        3     0.00000   20.98905   24.53897   18.50248
     287      444        3     0.00000   21.58999   10.19471    4.73550
     288      444        3     0.00000   20.92254   11.33271    5.41925
     289      444        3     0.00000    8.51123   23.42252    4.62982
     290      444        3     0.00000    7.81802   24.52293    5.34486
     291      444        3     0.00000    4.62378    2.88851   17.75958
     292      444        3     0.00000    5.32041    1.77233   18.45647
     293      444        3     0.00000    4.64139   16.05980    4.62877
     294      444        3     0.00000    5.32724   14.93258    5.32251
     295      444        3     0.00000   21.65939    2.83462    8.53463
     296      444        3     0.00000   20.96171    1.71844    7.84799
     297      444        3     0.00000   21.63941   16.04193   21.65571
     298      444        3     0.00000   20.94226   14.92811   20.95908
     299      444        3     0.00000    8.53148   16.06664    8.46865
     300      444        3     0.00000    7.83826   14.94152    7.77412
     301      444        3     0.00000    4.63219    8.50046    2.87116
     302      444        3     0.00000    5.33934    7.79804    1.76707
     303      444        3     0.00000    4.65375   21.63100   16.05560
     304      444        3     0.00000    5.35458   20.94725   14.93310
     305      444        3     0.00000   21.59945   17.81925    2.92900
     306      444        3     0.00000   20.91045   18.51588    1.81124
     307      444        3     0.00000   21.65334    4.66006   16.05060
     308      444        3     0.00000   20.97433    5.34959   14.92496
     309      444        3     0.00000    8.54278    4.60564    2.90508
     310      444        3     0.00000    7.84983    5.29517    1.78469
     311      444        3     0.00000    4.64980   17.80979   23.36363
     312      444        3     0.00000    5.33723   18.51404   24.48087
     313      444        3     0.00000    4.64087    4.65427   10.25780
     314      444        3     0.00000    5.33145    5.36089   11.36294
     315      444        3     0.00000   21.66780    8.50492   23.38046
     316      444        3     0.00000   20.98721    7.81145   24.50821
     317      444        3     0.00000   21.73720   21.67779   10.24413
     318      444        3     0.00000   21.05897   20.98116   11.37136
     319      444        3     0.00000    8.53253    8.49730   10.23651
     320      444        3     0.00000    7.84773    7.80619   11.36400
     321      444        3     0.00000    8.53542   23.37862   21.62890
     322      444        3     0.00000    7.83379   24.49323   20.93358
     323      444        3     0.00000    8.51202   10.22731    8.49835
     324      444        3     0.00000    7.81592   11.34875    7.80645
     325      444        3     0.00000   17.72541   23.43540    4.55070
     326      444        3     0.00000   18.43807   24.52608    5.27440
     327      444        3     0.00000   17.79323   10.22862   17.76273
     328      444        3     0.00000   18.47855   11.34743   18.46383
     329      444        3     0.00000    4.63903   10.22599    4.60958
     330      444        3     0.00000    5.34748   11.34165    5.30253
     331      444        3     0.00000   17.78718    2.94793   21.65913
     332      444        3     0.00000   18.49143    1.82333   20.97985
     333      444        3     0.00000   17.82556   16.14761    8.47154
     334      444        3     0.00000   18.49564   14.99278    7.81723
     335      444        3     0.00000    4.65585    2.91796    8.53410
     336      444        3     0.00000    5.34223    1.79073    7.84957
     337      444        3     0.00000    8.52674    2.89903    4.66321
     338      444        3     0.00000    7.82380    1.79546    5.36851
     339      444        3     0.00000    8.48389   16.05796   17.81952
     340      444        3     0.00000    7.80172   14.93494   18.51089
     341      444        3     0.00000   23.38230    4.64691   17.78455
     342      444        3     0.00000   24.50505    5.33224   18.47645
     343      444        3     0.00000   10.30012    4.58514    4.60879
     344      444        3     0.00000   11.41105    5.28781    5.29833
     345      444        3     0.00000   23.41016   21.65729    8.45761
     346      444        3     0.00000   24.51320   20.96670    7.75256
     347      444        3     0.00000   10.28120   21.65650   21.62968
     348      444        3     0.00000   11.39528   20.96066   20.92885
     349      444        3     0.00000   10.24781    8.49546    8.48600
     350      444        3     0.00000   11.36847    7.80619    7.78832
     351      444        3     0.00000    2.92216    4.64954    8.51938
     352      444        3     0.00000    1.80151    5.33907    7.82459
     353      444        3     0.00000   16.04245    4.67320   21.64835
     354      444        3     0.00000   14.92522    5.36405   20.95461
     355      444        3     0.00000    2.91664   21.62837   17.79007
     356      444        3     0.00000    1.79231   20.94173   18.48407
     357      444        3     0.00000    2.90192    8.48836    4.60485
     358      444        3     0.00000    1.78626    7.77938    5.29701
     359      444        3     0.00000   15.98304   21.71696    4.52625
     360      444        3     0.00000   14.89420   21.00429    5.23892
     361      444        3     0.00000   17.69412   21.73825    2.77968
     362      444        3     0.00000   18.40836   21.01875    1.69242
     363      444        3     0.00000   17.79770    8.50966   16.01774
     364      444        3     0.00000   18.49485    7.81802   14.90235
     365      444        3     0.00000    8.48232   17.76536   16.06585
     366      444        3     0.00000    7.79647   18.43807   14.93310
     367      444        3     0.00000    8.55513   21.64756   23.36495
     368      444        3     0.00000    7.86797   20.94672   24.48166
     369      444        3     0.00000   17.77930    4.69923   23.36889
     370      444        3     0.00000   18.47435    5.39375   24.48113
     371      444        3     0.00000   17.83608   17.91258   10.16842
     372      444        3     0.00000   18.51141   18.58739   11.30564
     373      444        3     0.00000    2.90061   17.77483   21.65045
     374      444        3     0.00000    1.77838   18.46357   20.96329
     375      444        3     0.00000   16.12132   17.90390    8.42369
     376      444        3     0.00000   14.99041   18.57372    7.73469
     377      444        3     0.00000   16.06112    8.49362   17.74407
     378      444        3     0.00000   14.93757    7.79647   18.42887
     379      444        3     0.00000   23.39387    8.50624   21.64441
     380      444        3     0.00000   24.51820    7.81750   20.95224
     381      444        3     0.00000   23.35023   17.77167    4.64060
     382      444        3     0.00000   24.48508   18.44280    5.33092
     383      444        3     0.00000   10.21522   17.78639   17.79454
     384      444        3     0.00000   11.34743   18.47435   18.46226
     385      444        3     0.00000   21.63915    2.92847   17.77509
     386      444        3     0.00000   20.93305    1.81965   18.45989
     387      444        3     0.00000   21.59761   16.05744    4.62746
     388      444        3     0.00000   20.90282   14.92969    5.30464
     389      444        3     0.00000    4.64034   16.05271   21.65361
     390      444        3     0.00000    5.32461   14.92180   20.97354
     391      444        3     0.00000   21.66964   23.36994    8.47128
     392      444        3     0.00000   20.96407   24.46957    7.76913
     393      444        3     0.00000   21.65098   10.23151   21.64020
     394      444        3     0.00000   20.95698   11.35217   20.94830
     395      444        3     0.00000    4.63508   23.37205   17.77667
     396      444        3     0.00000    5.32908   24.48902   18.46672
     397      444        3     0.00000   21.62837   17.77483   23.38177
     398      444        3     0.00000   20.93463   18.46304   24.49901
     399      444        3     0.00000   21.65939    4.60354   10.22783
     400      444        3     0.00000   20.97380    5.31252   11.34218
     401      444        3     0.00000    4.64271   21.61365   10.23151
     402      444        3     0.00000    5.33197   20.91965   11.35059
     403      444        3     0.00000   21.59236    8.49152    2.97264
     404      444        3     0.00000   20.92780    7.82801    1.81676
     405      444        3     0.00000   21.65361   21.69146   16.06927
     406      444        3     0.00000   20.95593   21.01323   14.94257
     407      444        3     0.00000    4.66952   17.79139    2.89272
     408      444        3     0.00000    5.37772   18.47645    1.77548
     409      444        3     0.00000   17.85527    2.95213    4.67609
     410      444        3     0.00000   18.54112    1.82307    5.34854
     411      444        3     0.00000   17.80427   16.04272   17.74118
     412      444        3     0.00000   18.48749   14.92496   18.44675
     413      444        3     0.00000    8.50361    2.90297   21.61575
     414      444        3     0.00000    7.81382    1.78022   20.92964
     415      444        3     0.00000    8.49020   10.24650   17.78718
     416      444        3     0.00000    7.79804   11.36005   18.47987
     417      444        3     0.00000   17.78114   23.39150   21.58999
     418      444        3     0.00000   18.44911   24.52687   20.90414
     419      444        3     0.00000   17.73592   10.26201    8.53174
     420      444        3     0.00000   18.41441   11.39107    7.83800
     421      444        3     0.00000    2.91638   21.61023    8.49467
     422      444        3     0.00000    1.79704   20.91465    7.79962
     423      444        3     0.00000   16.08399   21.63336   21.57132
     424      444        3     0.00000   14.96886   20.94015   20.87654
     425      444        3     0.00000    2.89482    4.62457   17.74775
     426      444        3     0.00000    1.78784    5.33092   18.44412
     427      444        3     0.00000   23.38020   21.66412   17.80926
     428      444        3     0.00000   24.49822   20.96670   18.49748
     429      444        3     0.00000   10.24623   21.69619    4.59407
     430      444        3     0.00000   11.36347   20.99746    5.28229
     431      444        3     0.00000   10.22757    4.63955   21.60103
     432      444        3     0.00000   11.34901    5.32619   20.90834
     433      444        3     0.00000    9.64740    5.20763   22.75086
     434      444        4     0.00000   10.06012    6.12114   23.16095
     435      444        3     0.00000    9.70208   18.35027    9.63583
     436      444        4     0.00000   10.12584   19.25326   10.05801
     437      444        3     0.00000   16.68256   21.05845   22.70907
     438      444        4     0.00000   16.28614   20.13443   23.11074
     439      444        3     0.00000   16.63078    7.92843    9.65581
     440      444        4     0.00000   16.22463    7.01046   10.06590
     441      444        3     0.00000    3.49471   21.04767    9.64713
     442      444        4     0.00000    3.07726   20.13942   10.06459
     443      444        3     0.00000   16.69545    5.23602    3.51942
     444      444        4     0.00000   16.27142    6.14006    3.10092
     445      444        3     0.00000   16.65522   18.32871   16.56900
     446      444        4     0.00000   16.23514   19.23144   16.14261
     447      444        3     0.00000    3.50786   18.35553    3.45423
     448      444        4     0.00000    3.09277   19.26141    3.02810
     449      444        3     0.00000    9.65870   21.14756    3.44003
     450      444        4     0.00000   10.08351   20.25272    3.00182
     451      444        3     0.00000    9.64082    7.95235   16.64261
     452      444        4     0.00000   10.06275    7.04726   16.22279
     453      444        3     0.00000   22.77479    9.64372    5.25495
     454      444        4     0.00000   23.22589   10.08325    6.13533
     455      444        3     0.00000   22.80738   22.81579   18.37813
     456      444        4     0.00000   23.21879   23.21984   19.29453
     457      444        3     0.00000    9.64845    9.67684   18.34475
     458      444        4     0.00000   10.07510   10.10533   19.24301
     459      444        3     0.00000   22.80580   16.61264   21.10945
     460      444        4     0.00000   23.23219   16.19229   20.20725
     461      444        3     0.00000   22.81054    3.40218    7.95603
     462      444        4     0.00000   23.22773    2.95923    7.06067
     463      444        3     0.00000    9.65896    3.47579   21.05424
     464      444        4     0.00000   10.08614    3.04598   20.15677
     465      444        3     0.00000    3.48341   16.64418    5.17609
     466      444        4     0.00000    3.05255   16.22989    6.08092
     467      444        3     0.00000    3.47053    3.47184   18.31609
     468      444        4     0.00000    3.05203    3.06070   19.22671
     469      444        3     0.00000    3.50339    9.62899   21.11024
     470      444        4     0.00000    3.08068   10.05460   20.20909
     471      444        3     0.00000    3.48604   22.77925    7.94683
     472      444        4     0.00000    3.05781   23.21274    7.05199
     473      444        3     0.00000    5.19265   22.78241    9.66895
     474      444        4     0.00000    6.08433   23.21537   10.10533
     475      444        3     0.00000   18.36736   22.79950   22.72826
     476      444        4     0.00000   19.27560   23.22063   23.14308
     477      444        3     0.00000   18.30584    9.68262    9.68157
     478      444        4     0.00000   19.19858   10.11742   10.11296
     479      444        3     0.00000   21.11155   22.85365   16.64655
     480      444        4     0.00000   20.22223   23.29581   16.21517
     481      444        3     0.00000   20.99168    9.59219    3.61143
     482      444        4     0.00000   20.03506    9.96127    3.25681
     483      444        3     0.00000    7.93816   22.85733    3.47684
     484      444        4     0.00000    7.02781   23.28188    3.07122
     485      444        3     0.00000    5.18397    3.46001   16.60212
     486      444        4     0.00000    6.08880    3.03757   16.18441
     487      444        3     0.00000   18.38155    3.49734    3.49208
     488      444        4     0.00000   19.25457    3.04782    3.03993
     489      444        3     0.00000   21.10340    3.43057    9.68289
     490      444        4     0.00000   20.20251    3.01549   10.12005
     491      444        3     0.00000    7.94289    3.48551   22.76716
     492      444        4     0.00000    7.04148    3.06385   23.19250
     493      444        3     0.00000    5.18660    9.65923    3.44450
     494      444        4     0.00000    6.08302   10.08877    3.01549
     495      444        3     0.00000   18.35395    9.66369   16.60186
     496      444        4     0.00000   19.25378   10.09561   16.17968
     497      444        3     0.00000   21.03269   16.66180    3.49287
     498      444        4     0.00000   20.11760   16.25775    3.07779
     499      444        3     0.00000    7.92212   16.62236   16.66022
     500      444        4     0.00000    7.01703   16.19939   16.24619
     501      444        3     0.00000    7.95630    3.48341    3.51785
     502      444        4     0.00000    7.02518    3.09146    3.12984
     503      444        3     0.00000    5.21473   16.65496   22.78951
     504      444        4     0.00000    6.13034   16.24855   23.20144
     505      444        3     0.00000    5.20238    3.49208    9.69603
     506      444        4     0.00000    6.09643    3.06280   10.13504
     507      444        3     0.00000   18.37813   16.73435    9.62269
     508      444        4     0.00000   19.25641   16.28982   10.07300
     509      444        3     0.00000   21.09867    9.65739   22.80028
     510      444        4     0.00000   20.19542   10.08404   23.22299
     511      444        3     0.00000    7.96760    9.65397    9.66369
     512      444        4     0.00000    7.07460   10.08299   10.10139
     513      444        3     0.00000    9.69340   22.80659   21.06923
     514      444        4     0.00000   10.10743   23.22589   20.16256
     515      444        3     0.00000    9.66527    9.65081    7.93185
     516      444        4     0.00000   10.08535   10.07720    7.02938
     517      444        3     0.00000   16.57400   22.85470    5.10564
     518      444        4     0.00000   16.16995   23.25612    6.02650
     519      444        3     0.00000   16.63682    9.64582   18.31373
     520      444        4     0.00000   16.21149   10.06406   19.21751
     521      444        3     0.00000    3.48262    9.64345    5.17083
     522      444        4     0.00000    3.06491   10.05801    6.08065
     523      444        3     0.00000   16.62526    3.51364   21.09657
     524      444        4     0.00000   16.20307    3.08147   20.19752
     525      444        3     0.00000   16.68283   16.72857    7.89294
     526      444        4     0.00000   16.25433   16.28772    7.00178
     527      444        3     0.00000    3.51206    3.50155    7.96129
     528      444        4     0.00000    3.10776    3.08830    7.04910
     529      444        3     0.00000    9.70786    3.44976    5.19317
     530      444        4     0.00000   10.12873    3.03494    6.10221
     531      444        3     0.00000    9.63898   16.63998   18.37130
     532      444        4     0.00000   10.06353   16.22805   19.27902
     533      444        3     0.00000   22.80686    5.21420   16.63288
     534      444        4     0.00000   23.22930    6.11930   16.21622
     535      444        3     0.00000   22.77347   18.35079    3.49392
     536      444        4     0.00000   23.21406   19.24563    3.06964
     537      444        3     0.00000    9.72573    5.13692    3.44924
     538      444        4     0.00000   10.16106    6.02545    3.00996
     539      444        3     0.00000   22.88519   21.12548    9.65055
     540      444        4     0.00000   23.34155   20.24563   10.08798
     541      444        3     0.00000   22.82237    7.94972   22.80318
     542      444        4     0.00000   23.24481    7.05015   23.23114
     543      444        3     0.00000    9.68394    7.93921    9.65003
     544      444        4     0.00000   10.11611    7.04174   10.07563
     545      444        3     0.00000    3.48341    5.20422    9.68183
     546      444        4     0.00000    3.05019    6.10037   10.10717
     547      444        3     0.00000    3.48367   18.34948   22.79450
     548      444        4     0.00000    3.05728   19.25247   23.21248
     549      444        3     0.00000    3.50549   21.06081   16.64208
     550      444        4     0.00000    3.09146   20.14941   16.22805
     551      444        3     0.00000    3.47289    7.94263    3.44109
     552      444        4     0.00000    3.04545    7.04568    3.00970
     553      444        3     0.00000   16.52668   21.18910    3.34067
     554      444        4     0.00000   16.08872   20.29952    2.90034
     555      444        3     0.00000   16.63840    7.94762   16.58398
     556      444        4     0.00000   16.21438    7.05173   16.14866
     557      444        3     0.00000    9.63820   18.33160   16.63393
     558      444        4     0.00000   10.06432   19.22723   16.19887
     559      444        3     0.00000    9.71706   21.10156   22.79266
     560      444        4     0.00000   10.15370   20.21093   23.22536
     561      444        3     0.00000   16.61500    5.24312   22.79844
     562      444        4     0.00000   16.17889    6.14112   23.21879
     563      444        3     0.00000   16.70596   18.48881    9.56249
     564      444        4     0.00000   16.30612   19.41756    9.95128
     565      444        3     0.00000    3.47316   16.61264   21.10130
     566      444        4     0.00000    3.03888   16.17179   20.21171
     567      444        3     0.00000    3.47841   22.79766   18.33476
     568      444        4     0.00000    3.04361   23.23351   19.22618
     569      444        3     0.00000   22.80975    9.65739   21.08237
     570      444        4     0.00000   23.23377   10.08036   20.17991
     571      444        3     0.00000   22.80239   22.78346    7.88295
     572      444        4     0.00000   23.17568   23.16674    6.94079
     573      444        3     0.00000   22.76112   16.61790    5.19028
     574      444        4     0.00000   23.18093   16.18493    6.09012
     575      444        3     0.00000   22.80265    3.48946   18.33555
     576      444        4     0.00000   23.22930    3.05281   19.23144
     577      444        3     0.00000   21.08736    3.50733   16.62105
     578      444        4     0.00000   20.18332    3.08699   16.19729
     579      444        3     0.00000   18.34080    3.53967   22.80607
     580      444        4     0.00000   19.24169    3.12511   23.23745
     581      444        3     0.00000   21.15124   22.81685    9.65844
     582      444        4     0.00000   20.24720   23.22904   10.08903
     583      444        3     0.00000    7.98495   22.80055   22.78872
     584      444        4     0.00000    7.07959   23.21852   23.21327
     585      444        3     0.00000    5.19712   22.79634   16.62315
     586      444        4     0.00000    6.09380   23.22667   16.19598
     587      444        3     0.00000   18.26956   22.87731    3.37694
     588      444        4     0.00000   19.18754   23.28240    2.97027
     589      444        3     0.00000   21.06949   16.62342   22.80055
     590      444        4     0.00000   20.15467   16.21017   23.20722
     591      444        3     0.00000    7.99231   16.62946    9.64345
     592      444        4     0.00000    7.10851   16.18861   10.08483
     593      444        3     0.00000    5.21368    9.62453   22.82605
     594      444        4     0.00000    6.11562   10.04566   23.25322
     595      444        3     0.00000    7.92896    9.66869   16.63551
     596      444        4     0.00000    7.02492   10.08956   16.21201
     597      444        3     0.00000    5.21105   16.63183    3.47447
     598      444        4     0.00000    6.11115   16.20307    3.05492
     599      444        3     0.00000   18.38497   16.62710   16.59871
     600      444        4     0.00000   19.30163   16.21359   16.19545
     601      444        3     0.00000   16.71910    3.54387    5.25548
     602      444        4     0.00000   16.30586    3.12826    6.16872
     603      444        3     0.00000   16.63104   16.60686   18.27456
     604      444        4     0.00000   16.19124   16.17521   19.16362
     605      444        3     0.00000    9.67684   16.65444    7.90057
     606      444        4     0.00000   10.07641   16.25302    6.97891
     607      444        3     0.00000    9.68104   22.85181    5.16268
     608      444        4     0.00000   10.12452   23.27688    6.05437
     609      444        3     0.00000   16.62867   22.81159   21.03453
     610      444        4     0.00000   16.19282   23.24218   20.14153
     611      444        3     0.00000   16.59345    9.66948    7.96786
     612      444        4     0.00000   16.16522   10.09271    7.06803
     613      444        3     0.00000    3.49576    7.91003   22.82079
     614      444        4     0.00000    3.06885    7.00888   23.24455
     615      444        3     0.00000    3.46448    5.16925   16.58267
     616      444        4     0.00000    3.03362    6.06304   16.14682
     617      444        3     0.00000   22.80607   21.12075   16.64392
     618      444        4     0.00000   23.23009   20.22538   16.20754
     619      444        3     0.00000   22.77452    7.95551    3.51469
     620      444        4     0.00000   23.21984    7.08459    3.05203
     621      444        3     0.00000   22.80580    5.15716    9.62531
     622      444        4     0.00000   23.22194    6.07435   10.02068
     623      444        3     0.00000   22.78819   18.33476   22.81527
     624      444        4     0.00000   23.20117   19.24195   23.23956
     625        1        5     0.00000   17.83082   11.90001   13.49305
     626        1        6     0.00000   17.61368   11.51909   14.38080
     627        1        6     0.00000   17.26878   11.38766   12.85899
     628        2        5     0.00000   14.85687   24.90016   23.70275
     629        2        6     0.00000   14.47201   23.98876   23.66305
     630        2        6     0.00000   15.41654   24.96851   22.88887
     631        3        5     0.00000   18.91441   15.12869   13.06298
     632        3        6     0.00000   19.50063   14.90471   12.29722
     633        3        6     0.00000   19.52981   15.19046   13.83585
     634        4        5     0.00000   17.05243   11.82403    3.32174
     635        4        6     0.00000   17.21384   11.71941    2.35040
     636        4        6     0.00000   16.32216   12.48991    3.38246
     637        5        5     0.00000   13.76040   11.75805    4.81883
     638        5        6     0.00000   13.33690   12.07298    3.98130
     639        5        6     0.00000   13.00936   11.66552    5.45711
     640        6        5     0.00000    1.07333   15.61186    8.99914
     641        6        6     0.00000    0.87355   15.06507    8.19920
     642        6        6     0.00000    2.06018   15.58715    9.07642
     643        7        5     0.00000   25.68328   24.75821   13.84847
     644        7        6     0.00000   25.83549   25.54395   14.43153
     645        7        6     0.00000   25.95667   25.06157   12.94626
     646        8        5     0.00000   24.04922   13.35767    3.06727
     647        8        6     0.00000   24.53581   12.95862    2.30335
     648        8        6     0.00000   24.34733   12.83612    3.85433
     649        9        5     0.00000   12.76514   15.75776   14.63474
     650        9        6     0.00000   12.36162   15.06192   15.21254
     651        9        6     0.00000   12.07587   16.46674   14.58216
     652       10        5     0.00000    2.57963   11.76804    1.18532
     653       10        6     0.00000    1.98263   11.07825    0.80126
     654       10        6     0.00000    2.34698   11.79275    2.14720
     655       11        5     0.00000   13.13028   15.09136    0.31782
     656       11        6     0.00000   13.63317   15.78404   -0.17955
     657       11        6     0.00000   13.82875   14.53248    0.74211
     658       12        5     0.00000   13.03170    2.28994   22.13993
     659       12        6     0.00000   12.33586    2.79204   22.63362
     660       12        6     0.00000   13.26855    2.87590   21.37969
     661       13        5     0.00000   23.43882    1.14852   22.37232
     662       13        6     0.00000   22.59866    1.29836   22.87442
     663       13        6     0.00000   23.18409    0.53154   21.64099
     664       14        5     0.00000   21.26402   19.68990   19.65573
     665       14        6     0.00000   21.40755   18.79007   19.26824
     666       14        6     0.00000   20.88705   19.51666   20.55477
     667       15        5     0.00000   11.86872   25.32129    4.02336
     668       15        6     0.00000   12.55037   25.12151    3.33331
     669       15        6     0.00000   12.17656   24.82866    4.82541
     670       16        5     0.00000    6.20789   12.87949   11.14292
     671       16        6     0.00000    5.48050   12.45416   10.62452
     672       16        6     0.00000    5.88560   12.86057   12.07850
     673       17        5     0.00000    8.81118   23.61863   14.33400
     674       17        6     0.00000    8.26623   24.16252   14.95597
     675       17        6     0.00000    9.73047   23.97272   14.43442
     676       18        5     0.00000    5.38928    7.53017   17.98566
     677       18        6     0.00000    5.68949    8.25335   18.59133
     678       18        6     0.00000    5.30989    7.96366   17.09949
     679       19        5     0.00000   20.57633    7.40294   18.95147
     680       19        6     0.00000   19.85499    7.12875   18.33055
     681       19        6     0.00000   20.42859    6.85431   19.76272
     682       20        5     0.00000    6.96603    7.39189    5.30280
     683       20        6     0.00000    7.10930    7.01913    4.39875
     684       20        6     0.00000    7.52964    8.20498    5.33040
     685       21        5     0.00000   16.08162   11.73965   22.56843
     686       21        6     0.00000   15.62921   12.53328   22.95039
     687       21        6     0.00000   16.37710   12.03223   21.67069
     688       22        5     0.00000    8.00624    1.32360   25.31157
     689       22        6     0.00000    8.14872    0.85856   24.44906
     690       22        6     0.00000    7.02229    1.39457   25.39595
     691       23        5     0.00000    0.08307    3.58593   15.04667
     692       23        6     0.00000    0.42271    4.38955   14.57874
     693       23        6     0.00000    0.89642    3.13089   15.38052
     694       24        5     0.00000   14.47464    3.16480    9.98414
     695       24        6     0.00000   13.95914    2.34041    9.79776
     696       24        6     0.00000   15.31664    3.05203    9.47521
     697       25        5     0.00000    9.71680   14.74173   25.58864
     698       25        6     0.00000   10.09771   14.67890   24.67777
     699       25        6     0.00000   10.36059   14.25330   26.16014
     700       26        5     0.00000   24.67619   10.35349    0.29626
     701       26        6     0.00000   23.90885   10.52173   -0.30625
     702       26        6     0.00000   24.28923    9.85060    1.05651
     703       27        5     0.00000   24.49638   15.71990    0.35305
     704       27        6     0.00000   24.49270   14.83558   -0.09174
     705       27        6     0.00000   25.24296   16.20912   -0.07545
     706       28        5     0.00000   24.03950    8.35850   11.73255
     707       28        6     0.00000   23.84838    8.03253   12.64501
     708       28        6     0.00000   23.17278    8.70366   11.40527
     709       29        5     0.00000   13.46046   23.27320   15.45229
     710       29        6     0.00000   13.90972   23.94355   14.87790
     711       29        6     0.00000   12.49359   23.42068   15.29667
     712       30        5     0.00000    0.49658   16.29455   17.39339
     713       30        6     0.00000    0.82281   15.53851   17.94254
     714       30        6     0.00000   -0.44374   16.42205   17.67546
     715       31        5     0.00000    3.70423   26.02765   10.26595
     716       31        6     0.00000    3.56937   26.98427   10.05170
     717       31        6     0.00000    3.99471   26.02397   11.21205
     718       32        5     0.00000    2.63352    0.08465   15.71806
     719       32        6     0.00000    3.60065    0.03996   15.92626
     720       32        6     0.00000    2.18531   -0.10568   16.58004
     721       33        5     0.00000   14.45677   26.04868   17.62025
     722       33        6     0.00000   15.22516   25.42434   17.63550
     723       33        6     0.00000   13.76908   25.60994   18.18176
     724       34        5     0.00000    8.57879    1.49788   14.58295
     725       34        6     0.00000    9.50912    1.70530   14.84846
     726       34        6     0.00000    8.37532    0.64379   15.03957
     727       35        5     0.00000   21.34315   11.62740   14.90813
     728       35        6     0.00000   22.23431   11.42919   15.29141
     729       35        6     0.00000   21.36207   12.60032   14.72438
     730       36        5     0.00000   10.83403   12.33586   12.91288
     731       36        6     0.00000   10.63319   13.18601   13.37923
     732       36        6     0.00000   11.39423   11.82771   13.55194
     733       37        5     0.00000    4.30438   15.01249   25.54106
     734       37        6     0.00000    4.65191   14.47123   24.78870
     735       37        6     0.00000    5.07278   15.56953   25.82234
     736       38        5     0.00000    0.21793    1.71213    9.25676
     737       38        6     0.00000   -0.13512    1.93348    8.35824
     738       38        6     0.00000    1.18348    1.54862    9.11112
     739       39        5     0.00000   15.28405   16.27142   22.09629
     740       39        6     0.00000   15.12948   16.58004   23.02373
     741       39        6     0.00000   16.21464   16.54219   21.89572
     742       40        5     0.00000   14.93468    8.42369   24.83970
     743       40        6     0.00000   14.85266    8.40293   23.85338
     744       40        6     0.00000   15.40734    7.58485   25.06814
     745       41        5     0.00000   25.63806   23.17147   25.66225
     746       41        6     0.00000   25.03502   23.45722   24.93118
     747       41        6     0.00000   25.53501   23.86915   26.35651
     748       42        5     0.00000    3.20160   24.51189    4.09224
     749       42        6     0.00000    3.47158   25.10389    3.34671
     750       42        6     0.00000    2.29309   24.81814    4.33908
     751       43        5     0.00000    9.26570   11.47230   26.24715
     752       43        6     0.00000    9.25781   11.39712   25.26031
     753       43        6     0.00000   10.03304   10.91579   26.53290
     754       44        5     0.00000   11.54249   12.42156   23.26532
     755       44        6     0.00000   12.00253   12.96151   23.95616
     756       44        6     0.00000   11.82272   12.82692   22.40649
     757       45        5     0.00000    4.55543   16.03509   11.42262
     758       45        6     0.00000    4.64665   15.97384   10.43893
     759       45        6     0.00000    5.23261   15.40576   11.77382
     760       46        5     0.00000    9.60691   22.85917   10.46258
     761       46        6     0.00000   10.48099   23.24560   10.72178
     762       46        6     0.00000    9.01912   23.03109   11.24044
     763       47        5     0.00000    0.78338   21.91464   14.94309
     764       47        6     0.00000    1.64799   21.97038   14.46413
     765       47        6     0.00000    0.87250   22.55765   15.69072
     766       48        5     0.00000    0.21845   15.57637   22.72983
     767       48        6     0.00000    0.03523   14.72990   23.20985
     768       48        6     0.00000    0.12434   15.34425   21.77164
     769       49        5     0.00000    9.85560   22.54293   17.32504
     770       49        6     0.00000    8.90108   22.77242   17.45411
     771       49        6     0.00000    9.96127   21.66649   17.77167
     772       50        5     0.00000   10.68472   17.25143   23.92909
     773       50        6     0.00000    9.78304   17.65916   23.92067
     774       50        6     0.00000   11.21074   17.79244   23.28898
     775       51        5     0.00000   20.33711   20.22591    7.54463
     776       51        6     0.00000   20.03007   20.17439    8.47943
     777       51        6     0.00000   19.97434   21.08027    7.21314
     778       52        5     0.00000   11.73676   23.70459   24.51163
     779       52        6     0.00000   10.76121   23.66095   24.67330
     780       52        6     0.00000   12.13029   23.86968   25.40463
     781       53        5     0.00000   16.56585   13.36030   10.15370
     782       53        6     0.00000   16.01301   12.70284   10.64607
     783       53        6     0.00000   16.20334   14.24147   10.42236
     784       54        5     0.00000   22.29503   13.40630   25.16357
     785       54        6     0.00000   22.28031   13.43101   24.17383
     786       54        6     0.00000   21.35103   13.54169   25.42986
     787       55        5     0.00000    5.89086    0.53233    1.98921
     788       55        6     0.00000    5.30963    0.29574    1.22370
     789       55        6     0.00000    5.27467    0.57413    2.76286
     790       56        5     0.00000    1.74972    2.37695   12.45232
     791       56        6     0.00000    2.30703    1.56019   12.47992
     792       56        6     0.00000    2.32175    3.08304   12.84637
     793       57        5     0.00000   25.29816   13.50278   18.82082
     794       57        6     0.00000   24.52871   14.10793   18.96961
     795       57        6     0.00000   25.44642   13.52539   17.84186
     796       58        5     0.00000   14.95151   12.96966   15.83820
     797       58        6     0.00000   15.92048   12.86398   16.01196
     798       58        6     0.00000   14.89341   13.73490   15.21228
     799       59        5     0.00000   12.68970   11.85532    1.06571
     800       59        6     0.00000   12.63949   11.92051    0.07913
     801       59        6     0.00000   12.93522   10.91211    1.24053
     802       60        5     0.00000    9.13636    4.00338    9.47127
     803       60        6     0.00000    8.35061    3.72578    8.93657
     804       60        6     0.00000    9.90660    3.57410    9.02096
     805       61        5     0.00000   24.02688   13.66261    9.83930
     806       61        6     0.00000   23.96458   14.03248   10.75543
     807       61        6     0.00000   24.96404   13.83006    9.56748
     808       62        5     0.00000    3.88640    3.15534   24.04212
     809       62        6     0.00000    4.65217    2.67059   23.64518
     810       62        6     0.00000    3.11222    2.55755   23.89255
     811       63        5     0.00000   17.24749    3.50339   12.02093
     812       63        6     0.00000   16.74618    2.69819   11.73807
     813       63        6     0.00000   16.54850    4.16137   12.26304
     814       64        5     0.00000    0.17140    9.99650    3.01549
     815       64        6     0.00000   -0.51314    9.55197    3.57279
     816       64        6     0.00000    0.01052   10.96337    3.15350
     817       65        5     0.00000   21.26980    1.51077    1.65745
     818       65        6     0.00000   20.58106    1.21135    1.01182
     819       65        6     0.00000   22.08815    1.01997    1.39326
     820       66        5     0.00000    3.87747   11.17236   14.11029
     821       66        6     0.00000    4.15086   11.19838   13.15920
     822       66        6     0.00000    4.72499   11.05774   14.60897
     823       67        5     0.00000   12.86346   12.19969    9.96942
     824       67        6     0.00000   12.00227   12.68365    9.89634
     825       67        6     0.00000   12.78538   11.67893   10.80801
     826       68        5     0.00000   12.27960    2.56149   15.59293
     827       68        6     0.00000   11.56668    2.59146   16.27957
     828       68        6     0.00000   12.47466    3.51206   15.39630
     829       69        5     0.00000    0.96503    4.72735   25.67066
     830       69        6     0.00000    1.60277    5.40532   26.00846
     831       69        6     0.00000    1.05178    3.96816   26.30052
     832       70        5     0.00000   23.60811   17.11316   10.35875
     833       70        6     0.00000   23.19513   16.81611    9.50912
     834       70        6     0.00000   24.54554   16.79876   10.30249
     835       71        5     0.00000   14.89262   15.38368    3.75128
     836       71        6     0.00000   14.74541   14.45756    4.06805
     837       71        6     0.00000   14.69415   15.94966    4.53913
     838       72        5     0.00000    2.97158   12.10216    8.72601
     839       72        6     0.00000    3.03573   12.56036    9.60113
     840       72        6     0.00000    2.97185   12.83638    8.06145
     841       73        5     0.00000    0.50920   10.18052   17.35790
     842       73        6     0.00000    0.96976   10.87189   17.89707
     843       73        6     0.00000   -0.37539   10.07694   17.79060
     844       74        5     0.00000   25.08681   25.10810   20.18569
     845       74        6     0.00000   25.98375   25.34022   20.53479
     846       74        6     0.00000   25.20510   25.06551   19.20331
     847       75        5     0.00000   22.14519   16.82846   15.71780
     848       75        6     0.00000   22.07789   16.66443   14.74357
     849       75        6     0.00000   22.64597   17.67888   15.79324
     850       76        5     0.00000   12.75305    5.97918   25.85389
     851       76        6     0.00000   13.45152    6.36246   26.43853
     852       76        6     0.00000   13.14500    6.00258   24.94669
     853       77        5     0.00000   13.80825   19.94647   24.74533
     854       77        6     0.00000   13.18180   20.27559   24.05343
     855       77        6     0.00000   13.67207   20.55582   25.51293
     856       78        5     0.00000    8.46339   26.03080   11.54381
     857       78        6     0.00000    8.68526   25.59916   12.40657
     858       78        6     0.00000    7.71471   25.49322   11.18182
     859       79        5     0.00000   22.97799   22.63204    0.94190
     860       79        6     0.00000   22.01428   22.41727    0.88485
     861       79        6     0.00000   23.04529   23.27031    1.69557
     862       80        5     0.00000   11.04644    0.76629   24.29160
     863       80        6     0.00000   11.99727    0.60883   24.51504
     864       80        6     0.00000   10.92788    0.35462   23.39886
     865       81        5     0.00000   25.22666   24.23429    9.81958
     866       81        6     0.00000   24.96904   25.18512    9.91764
     867       81        6     0.00000   24.72167   23.76347   10.52909
     868       82        5     0.00000   12.33770   19.10631   12.19075
     869       82        6     0.00000   12.65184   19.01378   11.25622
     870       82        6     0.00000   12.34664   18.18360   12.54932
     871       83        5     0.00000    2.47106   23.62546   12.03407
     872       83        6     0.00000    2.79572   22.72642   12.29170
     873       83        6     0.00000    1.54205   23.47667   11.72624
     874       84        5     0.00000   22.26585    0.24185   15.28273
     875       84        6     0.00000   23.24718    0.15378   15.18783
     876       84        6     0.00000   21.90019   -0.55783   14.82848
     877       85        5     0.00000   15.88210    8.88636    1.79993
     878       85        6     0.00000   15.46254    8.05829    1.45793
     879       85        6     0.00000   15.94729    8.74730    2.77811
     880       86        5     0.00000    6.93790   13.68574   14.49778
     881       86        6     0.00000    7.75256   14.10372   14.87422
     882       86        6     0.00000    6.20657   14.31429   14.72228
     883       87        5     0.00000   12.55799    9.09456   14.88421
     884       87        6     0.00000   12.52776    9.06091   15.87290
     885       87        6     0.00000   11.61951    9.25229   14.61055
     886       88        5     0.00000    2.14720   12.98806   24.48823
     887       88        6     0.00000    1.53337   12.47124   23.90832
     888       88        6     0.00000    1.56071   13.39079   25.17645
     889       89        5     0.00000   17.67572   12.22177   25.40620
     890       89        6     0.00000   16.76958   12.45889   25.72376
     891       89        6     0.00000   17.95437   11.47283   25.98901
     892       90        5     0.00000   21.61023   22.00140    3.72789
     893       90        6     0.00000   21.97064   21.21565    4.20948
     894       90        6     0.00000   22.12048   22.76926    4.08908
     895       91        5     0.00000   15.71149   25.55105    9.20970
     896       91        6     0.00000   16.36580   24.95011    8.77227
     897       91        6     0.00000   15.49304   26.22612    8.51912
     898       92        5     0.00000   -0.03076    3.13273    3.38562
     899       92        6     0.00000   -0.13906    3.97578    3.89298
     900       92        6     0.00000   -0.53680    2.46028    3.90770
     901       93        5     0.00000    8.16344   10.89765   13.44416
     902       93        6     0.00000    7.87691   11.08140   12.51514
     903       93        6     0.00000    8.84351   10.18367   13.35609
     904       94        5     0.00000   14.46255   16.78141   11.48177
     905       94        6     0.00000   14.34925   15.82190   11.26673
     906       94        6     0.00000   15.34504   16.83635   11.92708
     907       95        5     0.00000   21.42490   11.88292    1.49578
     908       95        6     0.00000   21.04557   12.36635    2.27206
     909       95        6     0.00000   20.66755   11.35506    1.13721
     910       96        5     0.00000   20.01035    7.80987    7.02518
     911       96        6     0.00000   20.03375    7.66897    8.00467
     912       96        6     0.00000   20.07581    8.79146    6.91582
     913       97        5     0.00000    2.38063   13.73674   12.96072
     914       97        6     0.00000    2.30834   14.55246   12.40368
     915       97        6     0.00000    2.66112   13.02802   12.32771
     916       98        5     0.00000   17.41048   23.42278   16.01669
     917       98        6     0.00000   17.70569   24.28266   15.62421
     918       98        6     0.00000   16.42231   23.45144   15.96333
     919       99        5     0.00000   11.77382   14.22780    5.97314
     920       99        6     0.00000   12.31273   15.05429    6.05305
     921       99        6     0.00000   11.04434   14.46571    5.34748
     922      100        5     0.00000   24.10495    1.79967   12.49990
     923      100        6     0.00000   23.13835    1.98342   12.61109
     924      100        6     0.00000   24.14097    1.01077   11.90369
     925      101        5     0.00000    4.36957   25.87465   23.71642
     926      101        6     0.00000    4.53939   25.42250   22.85365
     927      101        6     0.00000    4.91610   25.37177   24.37099
     928      102        5     0.00000   10.79276   25.45405    8.62848
     929      102        6     0.00000   11.57299   25.43459    9.23809
     930      102        6     0.00000   10.22231   26.18380    8.97837
     931      103        5     0.00000    7.88348   18.25353   21.20855
     932      103        6     0.00000    7.09274   18.42125   20.63653
     933      103        6     0.00000    8.00913   17.27220   21.17753
     934      104        5     0.00000   16.17915    2.10251   14.51486
     935      104        6     0.00000   15.94808    1.24578   14.07612
     936      104        6     0.00000   15.41654    2.28731   15.11791
     937      105        5     0.00000   11.66289   25.69642   20.39783
     938      105        6     0.00000   11.58113   26.68248   20.37707
     939      105        6     0.00000   11.22020   25.39464   19.56661
     940      106        5     0.00000    7.27781   20.01902    6.46183
     941      106        6     0.00000    6.83906   19.26588    5.99154
     942      106        6     0.00000    8.22259   19.97854    6.16872
     943      107        5     0.00000   14.43363    0.09385    1.22580
     944      107        6     0.00000   13.99910    0.23817    0.34779
     945      107        6     0.00000   14.90235    0.94558    1.41455
     946      108        5     0.00000    9.94130   24.91515    1.25025
     947      108        6     0.00000    9.75334   23.99901    0.92507
     948      108        6     0.00000   10.91132   25.04001    1.09883
     949      109        5     0.00000   18.97960   19.08975    4.83671
     950      109        6     0.00000   18.27719   19.73170    5.10853
     951      109        6     0.00000   18.91467   18.35631    5.49706
     952      110        5     0.00000    0.76708   16.35712   14.42969
     953      110        6     0.00000    1.04994   17.07925   13.81455
     954      110        6     0.00000    1.60961   16.01538   14.82059
     955      111        5     0.00000    9.83772    1.90955    1.60882
     956      111        6     0.00000   10.46101    1.56255    0.92323
     957      111        6     0.00000   10.19418    1.56965    2.46686
     958      112        5     0.00000    1.87696   24.51557   24.96168
     959      112        6     0.00000    1.41403   24.95589   24.20642
     960      112        6     0.00000    1.64641   25.06604   25.75215
     961      113        5     0.00000    2.32359    1.64378    5.00390
     962      113        6     0.00000    2.13142    1.15930    4.16348
     963      113        6     0.00000    2.09988    0.99947    5.72182
     964      114        5     0.00000   25.45799   25.55867    5.21184
     965      114        6     0.00000   24.69012   25.65673    4.59407
     966      114        6     0.00000   25.18249   24.84391    5.83933
     967      115        5     0.00000   12.59374    3.45949    1.20924
     968      115        6     0.00000   13.52644    3.15166    1.32360
     969      115        6     0.00000   12.23702    3.54045    2.12827
     970      116        5     0.00000   23.96589   14.19731   14.52643
     971      116        6     0.00000   24.35916   13.35084   14.85661
     972      116        6     0.00000   24.28581   14.88500   15.16339
     973      117        5     0.00000   24.92172    0.52628    0.62039
     974      117        6     0.00000   25.76845    0.26104    0.18086
     975      117        6     0.00000   25.18171    1.25130    1.24315
     976      118        5     0.00000    3.13694    3.55833    2.17532
     977      118        6     0.00000    3.58436    2.68163    2.28126
     978      118        6     0.00000    3.46317    3.90034    1.30546
     979      119        5     0.00000   18.07661    5.02809    8.43290
     980      119        6     0.00000   17.91073    4.52625    9.26911
     981      119        6     0.00000   18.98696    5.39743    8.54383
     982      120        5     0.00000   13.75672    1.94084    4.02704
     983      120        6     0.00000   14.01224    2.87642    3.84093
     984      120        6     0.00000   13.39868    1.96081    4.94870
     985      121        5     0.00000   25.50636   14.56639    5.56594
     986      121        6     0.00000   25.94695   15.45124    5.51178
     987      121        6     0.00000   25.61362   14.28747    6.50862
     988      122        5     0.00000   13.44100    7.83432   11.07825
     989      122        6     0.00000   14.22517    8.37270   11.35296
     990      122        6     0.00000   12.81325    7.90372   11.84086
     991      123        5     0.00000   13.39973   18.51457    1.58569
     992      123        6     0.00000   13.81955   18.53060    2.48210
     993      123        6     0.00000   12.70363   17.81373    1.65062
     994      124        5     0.00000    3.70791   15.17784   16.76537
     995      124        6     0.00000    4.58724   15.58399   16.56585
     996      124        6     0.00000    3.52836   15.42679   17.70622
     997      125        5     0.00000   19.26588   25.13018   26.07497
     998      125        6     0.00000   20.20541   24.89438   26.28028
     999      125        6     0.00000   19.05268   24.61284   25.25820
    1000      126        5     0.00000    0.21162   20.66807    1.75340
    1001      126        6     0.00000    1.00183   20.81528    1.17481
    1002      126        6     0.00000   -0.20242   21.56318    1.84147
    1003      127        5     0.00000    0.48396    7.48206   14.02013
    1004      127        6     0.00000   -0.34542    6.94290   14.05456
    1005      127        6     0.00000    0.22660    8.35903   14.40130
    1006      128        5     0.00000   25.28475   11.04381   12.27251
    1007      128        6     0.00000   24.66909   10.75017   12.98911
    1008      128        6     0.00000   24.90463   11.90001   11.95363
    1009      444        1     0.00000    8.29383    6.41951   51.23196
    1010      444        1     0.00000    8.32380   19.58238   38.10720
    1011      444        1     0.00000   21.44751    6.41083   38.08906
    1012      444        1     0.00000   21.39677   19.56240   51.24695
    1013      444        1     0.00000   18.03271   19.85578   51.19674
    1014      444        1     0.00000   18.03823    6.70893   38.09932
    1015      444        1     0.00000    4.86668   19.82029   38.10326
    1016      444        1     0.00000    4.87956    6.67187   51.26824
    1017      444        1     0.00000   18.03560    6.41267   27.59756
    1018      444        1     0.00000   18.07372   19.58764   40.74046
    1019      444        1     0.00000    4.87825    6.41582   40.74309
    1020      444        1     0.00000    4.91058   19.56766   27.58600
    1021      444        1     0.00000    8.26623   19.92859   27.59020
    1022      444        1     0.00000    8.26860    6.73391   40.76070
    1023      444        1     0.00000   21.42464   19.92334   40.75045
    1024      444        1     0.00000   21.39914    6.73680   27.62648
    1025      444        1     0.00000   24.96168    8.27070   32.74184
    1026      444        1     0.00000   24.97377   21.43226   45.87975
    1027      444        1     0.00000   11.82640    8.31355   45.85898
    1028      444        1     0.00000   11.83744   21.46985   32.65956
    1029      444        1     0.00000   24.95694   18.01063   46.16182
    1030      444        1     0.00000   24.97377    4.79228   32.96319
    1031      444        1     0.00000   11.85821   18.01930   32.97055
    1032      444        1     0.00000   11.82377    4.85669   46.10293
    1033      444        1     0.00000    1.30362   18.01957   32.64852
    1034      444        1     0.00000    1.31913    4.86458   45.82743
    1035      444        1     0.00000   14.47201   17.99118   45.79247
    1036      444        1     0.00000   14.51933    4.88955   32.73080
    1037      444        1     0.00000    1.34305    8.25782   46.15919
    1038      444        1     0.00000    1.33569   21.38416   32.99053
    1039      444        1     0.00000   14.46649    8.26965   32.99999
    1040      444        1     0.00000   14.49909   21.40492   46.06744
    1041      444        1     0.00000    6.42713   24.95905   34.59461
    1042      444        1     0.00000    6.43922   11.81010   47.73935
    1043      444        1     0.00000   19.53428   25.00426   47.67048
    1044      444        1     0.00000   19.50720   11.86504   34.59014
    1045      444        1     0.00000   19.89994   25.01083   44.31588
    1046      444        1     0.00000   19.83632   11.81115   31.22950
    1047      444        1     0.00000    6.72103   24.99559   31.17561
    1048      444        1     0.00000    6.70131   11.82771   44.30247
    1049      444        1     0.00000    6.41556    1.30362   44.27382
    1050      444        1     0.00000    6.41819   14.45624   31.13723
    1051      444        1     0.00000   19.60499    1.31729   31.13670
    1052      444        1     0.00000   19.58554   14.45282   44.27776
    1053      444        1     0.00000   19.86340    1.25788   34.60197
    1054      444        1     0.00000   19.84290   14.45940   47.70912
    1055      444        1     0.00000    6.72234    1.30756   47.69098
    1056      444        1     0.00000    6.74626   14.46755   34.53284
    1057      444        1     0.00000    6.44054    8.26071   27.59493
    1058      444        1     0.00000    6.45210   21.41807   40.75439
    1059      444        1     0.00000   19.58711    8.29199   40.71891
    1060      444        1     0.00000   19.51377   21.47143   27.52606
    1061      444        1     0.00000   19.81766   18.04244   27.62779
    1062      444        1     0.00000   19.88864    4.87483   40.73152
    1063      444        1     0.00000    6.70552   17.96489   40.74467
    1064      444        1     0.00000    6.74863    4.83066   27.61360
    1065      444        1     0.00000    6.43055   18.04796   51.24405
    1066      444        1     0.00000    6.42713    4.89612   38.11824
    1067      444        1     0.00000   19.60157   18.10895   38.06251
    1068      444        1     0.00000   19.55557    4.90848   51.25142
    1069      444        1     0.00000   19.90099    8.29147   51.27061
    1070      444        1     0.00000   19.96934   21.45329   38.13507
    1071      444        1     0.00000    6.75336    8.27622   38.12166
    1072      444        1     0.00000    6.77097   21.41202   51.23380
    1073      444        1     0.00000    8.29410   24.96246   46.12238
    1074      444        1     0.00000    8.28384   11.81799   32.99815
    1075      444        1     0.00000   21.40887   24.91120   32.94163
    1076      444        1     0.00000   21.42884   11.82666   46.14473
    1077      444        1     0.00000   17.98355   24.98560   32.67086
    1078      444        1     0.00000   18.00248   11.81773   45.84321
    1079      444        1     0.00000    4.86642   24.95773   45.85241
    1080      444        1     0.00000    4.88718   11.81589   32.68585
    1081      444        1     0.00000   18.02982    1.35067   46.17259
    1082      444        1     0.00000   18.01247   14.50303   33.02601
    1083      444        1     0.00000    4.87430    1.31965   33.04363
    1084      444        1     0.00000    4.85117   14.44257   46.17286
    1085      444        1     0.00000    8.29199    1.32701   32.75262
    1086      444        1     0.00000    8.27701   14.46203   45.88921
    1087      444        1     0.00000   21.39388    1.35330   45.84478
    1088      444        1     0.00000   21.37154   14.45966   32.68506
    1089      444        1     0.00000   24.97824    6.42634   44.29616
    1090      444        1     0.00000   24.96930   19.53033   31.14643
    1091      444        1     0.00000   11.87346    6.38428   31.11304
    1092      444        1     0.00000   11.81352   19.56687   44.27172
    1093      444        1     0.00000   24.97166   19.86997   34.50681
    1094      444        1     0.00000   24.98875    6.72103   47.70439
    1095      444        1     0.00000   11.86110   19.85998   47.67626
    1096      444        1     0.00000   11.84270    6.71446   34.54388
    1097      444        1     0.00000    1.32386    6.43239   34.58042
    1098      444        1     0.00000    1.31150   19.55846   47.72279
    1099      444        1     0.00000   14.45282    6.45946   47.70886
    1100      444        1     0.00000   14.51171   19.66440   34.48683
    1101      444        1     0.00000    1.31255   19.85157   44.30273
    1102      444        1     0.00000    1.31860    6.67976   31.11646
    1103      444        1     0.00000   14.44257   19.89547   31.07466
    1104      444        1     0.00000   14.46465    6.70157   44.24806
    1105      444        1     0.00000   17.95411   19.90940   27.53368
    1106      444        1     0.00000   18.03587    6.71656   40.72679
    1107      444        1     0.00000    4.88876   19.85604   40.74335
    1108      444        1     0.00000    4.87798    6.69868   27.59178
    1109      444        1     0.00000    8.32301    6.38375   27.59309
    1110      444        1     0.00000    8.26965   19.52849   40.74730
    1111      444        1     0.00000   21.44462    6.44606   40.74572
    1112      444        1     0.00000   21.38573   19.60420   27.61991
    1113      444        1     0.00000    8.33668   19.85262   51.24379
    1114      444        1     0.00000    8.31565    6.71209   38.12666
    1115      444        1     0.00000   21.51559   19.87628   38.11851
    1116      444        1     0.00000   21.44961    6.71104   51.26587
    1117      444        1     0.00000   18.02193    6.49837   51.22460
    1118      444        1     0.00000   18.03560   19.66861   38.09012
    1119      444        1     0.00000    4.86352    6.45999   38.11220
    1120      444        1     0.00000    4.86642   19.61104   51.23591
    1121      444        1     0.00000    1.30519   17.99827   46.15682
    1122      444        1     0.00000    1.33727    4.86931   33.01550
    1123      444        1     0.00000   14.50882   18.08397   32.94373
    1124      444        1     0.00000   14.46150    4.89533   46.14631
    1125      444        1     0.00000    1.31545    8.24073   32.68112
    1126      444        1     0.00000    1.32517   21.41228   45.86818
    1127      444        1     0.00000   14.46492    8.26597   45.81008
    1128      444        1     0.00000   14.43495   21.47301   32.62618
    1129      444        1     0.00000   24.99086    8.28936   46.14683
    1130      444        1     0.00000   24.98560   21.43673   32.94610
    1131      444        1     0.00000   11.83718    8.27412   32.98133
    1132      444        1     0.00000   11.86110   21.42832   46.11975
    1133      444        1     0.00000   24.95326   17.97041   32.71345
    1134      444        1     0.00000   24.97535    4.86063   45.85740
    1135      444        1     0.00000   11.83797   18.00090   45.83295
    1136      444        1     0.00000   11.86741    4.83329   32.69216
    1137      444        1     0.00000   19.83764    1.35409   44.27382
    1138      444        1     0.00000   19.80714   14.45703   31.12435
    1139      444        1     0.00000    6.72392    1.33306   31.19480
    1140      444        1     0.00000    6.70893   14.46071   44.33060
    1141      444        1     0.00000    6.43317    1.31571   34.60986
    1142      444        1     0.00000    6.41845   14.45177   47.73173
    1143      444        1     0.00000   19.58606    1.35225   47.74040
    1144      444        1     0.00000   19.58107   14.51013   34.58568
    1145      444        1     0.00000   19.88653   24.95984   34.54388
    1146      444        1     0.00000   19.85814   11.81957   47.70018
    1147      444        1     0.00000    6.73864   24.96062   47.69098
    1148      444        1     0.00000    6.72103   11.82219   34.56018
    1149      444        1     0.00000    6.42266   24.95721   44.28197
    1150      444        1     0.00000    6.44500   11.80879   31.12014
    1151      444        1     0.00000   19.54216   24.97903   31.10384
    1152      444        1     0.00000   19.57581   11.81957   44.29196
    1153      444        1     0.00000   19.84684   17.98960   51.26272
    1154      444        1     0.00000   19.88049    4.85327   38.10852
    1155      444        1     0.00000    6.76887   18.01299   38.10326
    1156      444        1     0.00000    6.73549    4.85327   51.24064
    1157      444        1     0.00000    6.44632    8.23311   51.25667
    1158      444        1     0.00000    6.42266   21.39204   38.11299
    1159      444        1     0.00000   19.58843    8.28516   38.08959
    1160      444        1     0.00000   19.59316   21.42438   51.20541
    1161      444        1     0.00000   19.85657    8.31802   27.60939
    1162      444        1     0.00000   19.86182   21.48457   40.76097
    1163      444        1     0.00000    6.70394    8.29646   40.75623
    1164      444        1     0.00000    6.69737   21.48747   27.58074
    1165      444        1     0.00000    6.47708   18.00931   27.59783
    1166      444        1     0.00000    6.44290    4.85380   40.74756
    1167      444        1     0.00000   19.61735   18.00879   40.70655
    1168      444        1     0.00000   19.59737    4.84381   27.59493
    1169      444        1     0.00000   18.08581    1.36750   32.74211
    1170      444        1     0.00000   18.00958   14.45808   45.82796
    1171      444        1     0.00000    4.85958    1.30414   45.84347
    1172      444        1     0.00000    4.86274   14.46176   32.70741
    1173      444        1     0.00000    8.27937    1.31071   46.12107
    1174      444        1     0.00000    8.30461   14.46597   32.96660
    1175      444        1     0.00000   21.42359    1.25420   33.03469
    1176      444        1     0.00000   21.41333   14.45992   46.15367
    1177      444        1     0.00000    8.28857   24.97429   32.73369
    1178      444        1     0.00000    8.26754   11.82509   45.86397
    1179      444        1     0.00000   21.45224   25.00899   45.88842
    1180      444        1     0.00000   21.40256   11.81930   32.79074
    1181      444        1     0.00000   17.98013   25.00032   46.09715
    1182      444        1     0.00000   17.94386   11.85900   33.02891
    1183      444        1     0.00000    4.87036   24.97403   33.02523
    1184      444        1     0.00000    4.87483   11.80458   46.17759
    1185      444        1     0.00000    1.31545   19.82108   34.55334
    1186      444        1     0.00000    1.33595    6.68370   47.71175
    1187      444        1     0.00000   14.49646   19.84999   47.63920
    1188      444        1     0.00000   14.45466    6.70972   34.57043
    1189      444        1     0.00000    1.32885    6.43396   44.27014
    1190      444        1     0.00000    1.31913   19.58764   31.08938
    1191      444        1     0.00000   14.51960    6.44895   31.16693
    1192      444        1     0.00000   14.45204   19.54190   44.21783
    1193      444        1     0.00000   24.96299   19.87102   44.31430
    1194      444        1     0.00000   24.96141    6.71892   31.16615
    1195      444        1     0.00000   11.82561   19.89731   31.10910
    1196      444        1     0.00000   11.82535    6.75047   44.29485
    1197      444        1     0.00000   24.97272    6.35326   34.52837
    1198      444        1     0.00000   24.96194   19.56976   47.72831
    1199      444        1     0.00000   11.81851    6.41977   47.66653
    1200      444        1     0.00000   11.84664   19.59369   34.52548
    1201      444        2     0.00000    7.37034    7.31066   26.29079
    1202      444        2     0.00000    7.34011   20.45356   39.43106
    1203      444        2     0.00000   20.51771    7.35194   39.40582
    1204      444        2     0.00000   20.45777   20.48195   26.26924
    1205      444        2     0.00000   18.92676   18.94911   26.27292
    1206      444        2     0.00000   19.00983    5.83749   39.41660
    1207      444        2     0.00000    5.83039   18.93675   39.42370
    1208      444        2     0.00000    5.83828    5.77440   26.29710
    1209      444        2     0.00000   18.93728    7.38217   26.29079
    1210      444        2     0.00000   19.02087   20.51219   39.43054
    1211      444        2     0.00000    5.82461    7.33616   39.43316
    1212      444        2     0.00000    5.84275   20.48879   26.26529
    1213      444        2     0.00000    7.34615   18.99222   26.27449
    1214      444        2     0.00000    7.33354    5.82750   39.43842
    1215      444        2     0.00000   20.50351   19.01351   39.41213
    1216      444        2     0.00000   20.46198    5.83486   26.29211
    1217      444        2     0.00000   -0.00079    7.29410   33.60330
    1218      444        2     0.00000   -0.00053   20.46750   46.77432
    1219      444        2     0.00000   13.14080    7.33800   46.73542
    1220      444        2     0.00000   13.14553   20.52822   33.57596
    1221      444        2     0.00000   -0.00920   18.96330   45.26487
    1222      444        2     0.00000   -0.00210    5.78229   32.09174
    1223      444        2     0.00000   13.15000   18.98775   32.05205
    1224      444        2     0.00000   13.14342    5.82987   45.22728
    1225      444        2     0.00000   -0.00999   18.94648   33.57780
    1226      444        2     0.00000    0.01104    5.81804   46.73883
    1227      444        2     0.00000   13.16629   18.95568   46.70466
    1228      444        2     0.00000   13.16025    5.79780   33.60409
    1229      444        2     0.00000    0.01630    7.33432   45.23490
    1230      444        2     0.00000    0.00736   20.45777   32.07098
    1231      444        2     0.00000   13.15788    7.32828   32.06992
    1232      444        2     0.00000   13.15604   20.46040   45.19495
    1233      444        2     0.00000    7.36166   -0.00237   33.67349
    1234      444        2     0.00000    7.32565   13.13764   46.77958
    1235      444        2     0.00000   20.46329    0.03523   46.75645
    1236      444        2     0.00000   20.43385   13.16340   33.63037
    1237      444        2     0.00000   18.96120    0.03523   45.23832
    1238      444        2     0.00000   18.92466   13.15762   32.12644
    1239      444        2     0.00000    5.84459    0.01025   32.15457
    1240      444        2     0.00000    5.81304   13.13422   45.27355
    1241      444        2     0.00000    7.32749   -0.01052   45.22491
    1242      444        2     0.00000    7.34300   13.13738   32.07518
    1243      444        2     0.00000   20.47459   -0.02918   32.07466
    1244      444        2     0.00000   20.46855   13.13948   45.24884
    1245      444        2     0.00000   18.97434   -0.01919   33.59173
    1246      444        2     0.00000   18.95463   13.13843   46.74436
    1247      444        2     0.00000    5.82855   -0.01130   46.73726
    1248      444        2     0.00000    5.84012   13.14185   33.58568
    1249      444        3     0.00000    8.49967    4.64481   49.62551
    1250      444        3     0.00000    7.82065    5.32908   50.75825
    1251      444        3     0.00000    8.55014   17.79060   36.50680
    1252      444        3     0.00000    7.86113   18.48513   37.63297
    1253      444        3     0.00000   17.82819   21.62837   49.58240
    1254      444        3     0.00000   18.51010   20.94567   50.71830
    1255      444        3     0.00000   17.77746    8.50230   36.52493
    1256      444        3     0.00000   18.49170    7.80908   37.62929
    1257      444        3     0.00000    4.65322    8.46470   49.68387
    1258      444        3     0.00000    5.34775    7.76597   50.79558
    1259      444        3     0.00000   17.82661    4.65217   29.20638
    1260      444        3     0.00000   18.50694    5.31936   28.06891
    1261      444        3     0.00000   17.82767   17.78008   42.30091
    1262      444        3     0.00000   18.52981   18.48039   41.19156
    1263      444        3     0.00000    4.63009    4.61537   42.30959
    1264      444        3     0.00000    5.34039    5.31620   41.20733
    1265      444        3     0.00000    8.49309   21.70986   29.17116
    1266      444        3     0.00000    7.79410   21.02349   28.05445
    1267      444        3     0.00000    8.48521    8.51123   42.35322
    1268      444        3     0.00000    7.79594    7.82512   41.23152
    1269      444        3     0.00000   23.34918    8.49467   30.96925
    1270      444        3     0.00000   24.48324    7.80514   31.64748
    1271      444        3     0.00000   10.22284    8.52017   44.07955
    1272      444        3     0.00000   11.35164    7.84115   44.76724
    1273      444        3     0.00000   23.37520   17.77430   47.95439
    1274      444        3     0.00000   24.49060   18.47435   47.25986
    1275      444        3     0.00000   23.38282    4.57462   34.76733
    1276      444        3     0.00000   24.50243    5.25942   34.06018
    1277      444        3     0.00000   10.26832   17.79743   34.75918
    1278      444        3     0.00000   11.38634   18.49117   34.06360
    1279      444        3     0.00000    2.91428   17.79822   30.88933
    1280      444        3     0.00000    1.78442   18.49117   31.56099
    1281      444        3     0.00000   16.05875   17.76273   44.00016
    1282      444        3     0.00000   14.93153   18.45174   44.68917
    1283      444        3     0.00000   16.13683    4.69108   30.97635
    1284      444        3     0.00000   15.00172    5.36720   31.64853
    1285      444        3     0.00000    2.92663    8.46970   47.95097
    1286      444        3     0.00000    1.81018    7.78017   47.25171
    1287      444        3     0.00000   16.04035    8.49599   34.79887
    1288      444        3     0.00000   14.92785    7.80225   34.10014
    1289      444        3     0.00000    4.64008   23.35995   34.79782
    1290      444        3     0.00000    5.33434   24.49060   34.11617
    1291      444        3     0.00000    4.65795   10.20549   47.95912
    1292      444        3     0.00000    5.34696   11.33271   47.27038
    1293      444        3     0.00000   21.66990   23.41411   44.09900
    1294      444        3     0.00000   20.98905   24.53897   44.79038
    1295      444        3     0.00000   21.58999   10.19471   31.02340
    1296      444        3     0.00000   20.92254   11.33271   31.70715
    1297      444        3     0.00000    8.51123   23.42252   30.91772
    1298      444        3     0.00000    7.81802   24.52293   31.63276
    1299      444        3     0.00000    4.62378    2.88851   44.04748
    1300      444        3     0.00000    5.32041    1.77233   44.74437
    1301      444        3     0.00000    4.64139   16.05980   30.91667
    1302      444        3     0.00000    5.32724   14.93258   31.61041
    1303      444        3     0.00000   21.65939    2.83462   34.82253
    1304      444        3     0.00000   20.96171    1.71844   34.13589
    1305      444        3     0.00000   21.63941   16.04193   47.94361
    1306      444        3     0.00000   20.94226   14.92811   47.24698
    1307      444        3     0.00000    8.53148   16.06664   34.75655
    1308      444        3     0.00000    7.83826   14.94152   34.06202
    1309      444        3     0.00000    4.63219    8.50046   29.15906
    1310      444        3     0.00000    5.33934    7.79804   28.05497
    1311      444        3     0.00000    4.65375   21.63100   42.34350
    1312      444        3     0.00000    5.35458   20.94725   41.22100
    1313      444        3     0.00000   21.59945   17.81925   29.21690
    1314      444        3     0.00000   20.91045   18.51588   28.09914
    1315      444        3     0.00000   21.65334    4.66006   42.33850
    1316      444        3     0.00000   20.97433    5.34959   41.21286
    1317      444        3     0.00000    8.54278    4.60564   29.19298
    1318      444        3     0.00000    7.84983    5.29517   28.07259
    1319      444        3     0.00000    4.64980   17.80979   49.65153
    1320      444        3     0.00000    5.33723   18.51404   50.76877
    1321      444        3     0.00000    4.64087    4.65427   36.54570
    1322      444        3     0.00000    5.33145    5.36089   37.65084
    1323      444        3     0.00000   21.66780    8.50492   49.66836
    1324      444        3     0.00000   20.98721    7.81145   50.79611
    1325      444        3     0.00000   21.73720   21.67779   36.53203
    1326      444        3     0.00000   21.05897   20.98116   37.65926
    1327      444        3     0.00000    8.53253    8.49730   36.52441
    1328      444        3     0.00000    7.84773    7.80619   37.65190
    1329      444        3     0.00000    8.53542   23.37862   47.91680
    1330      444        3     0.00000    7.83379   24.49323   47.22148
    1331      444        3     0.00000    8.51202   10.22731   34.78625
    1332      444        3     0.00000    7.81592   11.34875   34.09435
    1333      444        3     0.00000   17.72541   23.43540   30.83860
    1334      444        3     0.00000   18.43807   24.52608   31.56230
    1335      444        3     0.00000   17.79323   10.22862   44.05063
    1336      444        3     0.00000   18.47855   11.34743   44.75173
    1337      444        3     0.00000    4.63903   10.22599   30.89748
    1338      444        3     0.00000    5.34748   11.34165   31.59043
    1339      444        3     0.00000   17.78718    2.94793   47.94703
    1340      444        3     0.00000   18.49143    1.82333   47.26775
    1341      444        3     0.00000   17.82556   16.14761   34.75944
    1342      444        3     0.00000   18.49564   14.99278   34.10513
    1343      444        3     0.00000    4.65585    2.91796   34.82200
    1344      444        3     0.00000    5.34223    1.79073   34.13747
    1345      444        3     0.00000    8.52674    2.89903   30.95111
    1346      444        3     0.00000    7.82380    1.79546   31.65641
    1347      444        3     0.00000    8.48389   16.05796   44.10742
    1348      444        3     0.00000    7.80172   14.93494   44.79879
    1349      444        3     0.00000   23.38230    4.64691   44.07245
    1350      444        3     0.00000   24.50505    5.33224   44.76435
    1351      444        3     0.00000   10.30012    4.58514   30.89669
    1352      444        3     0.00000   11.41105    5.28781   31.58623
    1353      444        3     0.00000   23.41016   21.65729   34.74551
    1354      444        3     0.00000   24.51320   20.96670   34.04046
    1355      444        3     0.00000   10.28120   21.65650   47.91758
    1356      444        3     0.00000   11.39528   20.96066   47.21675
    1357      444        3     0.00000   10.24781    8.49546   34.77390
    1358      444        3     0.00000   11.36847    7.80619   34.07622
    1359      444        3     0.00000    2.92216    4.64954   34.80728
    1360      444        3     0.00000    1.80151    5.33907   34.11249
    1361      444        3     0.00000   16.04245    4.67320   47.93625
    1362      444        3     0.00000   14.92522    5.36405   47.24251
    1363      444        3     0.00000    2.91664   21.62837   44.07797
    1364      444        3     0.00000    1.79231   20.94173   44.77197
    1365      444        3     0.00000    2.90192    8.48836   30.89275
    1366      444        3     0.00000    1.78626    7.77938   31.58491
    1367      444        3     0.00000   15.98304   21.71696   30.81415
    1368      444        3     0.00000   14.89420   21.00429   31.52682
    1369      444        3     0.00000   17.69412   21.73825   29.06758
    1370      444        3     0.00000   18.40836   21.01875   27.98032
    1371      444        3     0.00000   17.79770    8.50966   42.30564
    1372      444        3     0.00000   18.49485    7.81802   41.19025
    1373      444        3     0.00000    8.48232   17.76536   42.35375
    1374      444        3     0.00000    7.79647   18.43807   41.22100
    1375      444        3     0.00000    8.55513   21.64756   49.65285
    1376      444        3     0.00000    7.86797   20.94672   50.76956
    1377      444        3     0.00000   17.77930    4.69923   49.65679
    1378      444        3     0.00000   18.47435    5.39375   50.76903
    1379      444        3     0.00000   17.83608   17.91258   36.45632
    1380      444        3     0.00000   18.51141   18.58739   37.59354
    1381      444        3     0.00000    2.90061   17.77483   47.93835
    1382      444        3     0.00000    1.77838   18.46357   47.25119
    1383      444        3     0.00000   16.12132   17.90390   34.71159
    1384      444        3     0.00000   14.99041   18.57372   34.02259
    1385      444        3     0.00000   16.06112    8.49362   44.03197
    1386      444        3     0.00000   14.93757    7.79647   44.71677
    1387      444        3     0.00000   23.39387    8.50624   47.93231
    1388      444        3     0.00000   24.51820    7.81750   47.24014
    1389      444        3     0.00000   23.35023   17.77167   30.92850
    1390      444        3     0.00000   24.48508   18.44280   31.61882
    1391      444        3     0.00000   10.21522   17.78639   44.08244
    1392      444        3     0.00000   11.34743   18.47435   44.75016
    1393      444        3     0.00000   21.63915    2.92847   44.06299
    1394      444        3     0.00000   20.93305    1.81965   44.74779
    1395      444        3     0.00000   21.59761   16.05744   30.91536
    1396      444        3     0.00000   20.90282   14.92969   31.59254
    1397      444        3     0.00000    4.64034   16.05271   47.94151
    1398      444        3     0.00000    5.32461   14.92180   47.26144
    1399      444        3     0.00000   21.66964   23.36994   34.75918
    1400      444        3     0.00000   20.96407   24.46957   34.05703
    1401      444        3     0.00000   21.65098   10.23151   47.92810
    1402      444        3     0.00000   20.95698   11.35217   47.23620
    1403      444        3     0.00000    4.63508   23.37205   44.06457
    1404      444        3     0.00000    5.32908   24.48902   44.75462
    1405      444        3     0.00000   21.62837   17.77483   49.66967
    1406      444        3     0.00000   20.93463   18.46304   50.78691
    1407      444        3     0.00000   21.65939    4.60354   36.51573
    1408      444        3     0.00000   20.97380    5.31252   37.63008
    1409      444        3     0.00000    4.64271   21.61365   36.51941
    1410      444        3     0.00000    5.33197   20.91965   37.63849
    1411      444        3     0.00000   21.59236    8.49152   29.26054
    1412      444        3     0.00000   20.92780    7.82801   28.10466
    1413      444        3     0.00000   21.65361   21.69146   42.35717
    1414      444        3     0.00000   20.95593   21.01323   41.23047
    1415      444        3     0.00000    4.66952   17.79139   29.18062
    1416      444        3     0.00000    5.37772   18.47645   28.06338
    1417      444        3     0.00000   17.85527    2.95213   30.96399
    1418      444        3     0.00000   18.54112    1.82307   31.63644
    1419      444        3     0.00000   17.80427   16.04272   44.02908
    1420      444        3     0.00000   18.48749   14.92496   44.73465
    1421      444        3     0.00000    8.50361    2.90297   47.90365
    1422      444        3     0.00000    7.81382    1.78022   47.21754
    1423      444        3     0.00000    8.49020   10.24650   44.07508
    1424      444        3     0.00000    7.79804   11.36005   44.76777
    1425      444        3     0.00000   17.78114   23.39150   47.87789
    1426      444        3     0.00000   18.44911   24.52687   47.19204
    1427      444        3     0.00000   17.73592   10.26201   34.81964
    1428      444        3     0.00000   18.41441   11.39107   34.12590
    1429      444        3     0.00000    2.91638   21.61023   34.78257
    1430      444        3     0.00000    1.79704   20.91465   34.08752
    1431      444        3     0.00000   16.08399   21.63336   47.85922
    1432      444        3     0.00000   14.96886   20.94015   47.16444
    1433      444        3     0.00000    2.89482    4.62457   44.03565
    1434      444        3     0.00000    1.78784    5.33092   44.73202
    1435      444        3     0.00000   23.38020   21.66412   44.09716
    1436      444        3     0.00000   24.49822   20.96670   44.78538
    1437      444        3     0.00000   10.24623   21.69619   30.88197
    1438      444        3     0.00000   11.36347   20.99746   31.57019
    1439      444        3     0.00000   10.22757    4.63955   47.88893
    1440      444        3     0.00000   11.34901    5.32619   47.19624
    1441      444        3     0.00000    9.64740    5.20763   49.03876
    1442      444        4     0.00000   10.06012    6.12114   49.44885
    1443      444        3     0.00000    9.70208   18.35027   35.92373
    1444      444        4     0.00000   10.12584   19.25326   36.34591
    1445      444        3     0.00000   16.68256   21.05845   48.99697
    1446      444        4     0.00000   16.28614   20.13443   49.39864
    1447      444        3     0.00000   16.63078    7.92843   35.94371
    1448      444        4     0.00000   16.22463    7.01046   36.35380
    1449      444        3     0.00000    3.49471   21.04767   35.93503
    1450      444        4     0.00000    3.07726   20.13942   36.35249
    1451      444        3     0.00000   16.69545    5.23602   29.80732
    1452      444        4     0.00000   16.27142    6.14006   29.38882
    1453      444        3     0.00000   16.65522   18.32871   42.85690
    1454      444        4     0.00000   16.23514   19.23144   42.43051
    1455      444        3     0.00000    3.50786   18.35553   29.74213
    1456      444        4     0.00000    3.09277   19.26141   29.31600
    1457      444        3     0.00000    9.65870   21.14756   29.72793
    1458      444        4     0.00000   10.08351   20.25272   29.28972
    1459      444        3     0.00000    9.64082    7.95235   42.93051
    1460      444        4     0.00000   10.06275    7.04726   42.51069
    1461      444        3     0.00000   22.77479    9.64372   31.54285
    1462      444        4     0.00000   23.22589   10.08325   32.42323
    1463      444        3     0.00000   22.80738   22.81579   44.66603
    1464      444        4     0.00000   23.21879   23.21984   45.58243
    1465      444        3     0.00000    9.64845    9.67684   44.63265
    1466      444        4     0.00000   10.07510   10.10533   45.53091
    1467      444        3     0.00000   22.80580   16.61264   47.39735
    1468      444        4     0.00000   23.23219   16.19229   46.49515
    1469      444        3     0.00000   22.81054    3.40218   34.24393
    1470      444        4     0.00000   23.22773    2.95923   33.34857
    1471      444        3     0.00000    9.65896    3.47579   47.34214
    1472      444        4     0.00000   10.08614    3.04598   46.44467
    1473      444        3     0.00000    3.48341   16.64418   31.46399
    1474      444        4     0.00000    3.05255   16.22989   32.36882
    1475      444        3     0.00000    3.47053    3.47184   44.60399
    1476      444        4     0.00000    3.05203    3.06070   45.51461
    1477      444        3     0.00000    3.50339    9.62899   47.39814
    1478      444        4     0.00000    3.08068   10.05460   46.49699
    1479      444        3     0.00000    3.48604   22.77925   34.23473
    1480      444        4     0.00000    3.05781   23.21274   33.33989
    1481      444        3     0.00000    5.19265   22.78241   35.95685
    1482      444        4     0.00000    6.08433   23.21537   36.39323
    1483      444        3     0.00000   18.36736   22.79950   49.01616
    1484      444        4     0.00000   19.27560   23.22063   49.43098
    1485      444        3     0.00000   18.30584    9.68262   35.96947
    1486      444        4     0.00000   19.19858   10.11742   36.40086
    1487      444        3     0.00000   21.11155   22.85365   42.93445
    1488      444        4     0.00000   20.22223   23.29581   42.50307
    1489      444        3     0.00000   20.99168    9.59219   29.89933
    1490      444        4     0.00000   20.03506    9.96127   29.54471
    1491      444        3     0.00000    7.93816   22.85733   29.76474
    1492      444        4     0.00000    7.02781   23.28188   29.35912
    1493      444        3     0.00000    5.18397    3.46001   42.89002
    1494      444        4     0.00000    6.08880    3.03757   42.47231
    1495      444        3     0.00000   18.38155    3.49734   29.77998
    1496      444        4     0.00000   19.25457    3.04782   29.32783
    1497      444        3     0.00000   21.10340    3.43057   35.97079
    1498      444        4     0.00000   20.20251    3.01549   36.40795
    1499      444        3     0.00000    7.94289    3.48551   49.05506
    1500      444        4     0.00000    7.04148    3.06385   49.48040
    1501      444        3     0.00000    5.18660    9.65923   29.73240
    1502      444        4     0.00000    6.08302   10.08877   29.30339
    1503      444        3     0.00000   18.35395    9.66369   42.88976
    1504      444        4     0.00000   19.25378   10.09561   42.46758
    1505      444        3     0.00000   21.03269   16.66180   29.78077
    1506      444        4     0.00000   20.11760   16.25775   29.36569
    1507      444        3     0.00000    7.92212   16.62236   42.94812
    1508      444        4     0.00000    7.01703   16.19939   42.53409
    1509      444        3     0.00000    7.95630    3.48341   29.80575
    1510      444        4     0.00000    7.02518    3.09146   29.41774
    1511      444        3     0.00000    5.21473   16.65496   49.07741
    1512      444        4     0.00000    6.13034   16.24855   49.48934
    1513      444        3     0.00000    5.20238    3.49208   35.98393
    1514      444        4     0.00000    6.09643    3.06280   36.42294
    1515      444        3     0.00000   18.37813   16.73435   35.91059
    1516      444        4     0.00000   19.25641   16.28982   36.36090
    1517      444        3     0.00000   21.09867    9.65739   49.08818
    1518      444        4     0.00000   20.19542   10.08404   49.51089
    1519      444        3     0.00000    7.96760    9.65397   35.95159
    1520      444        4     0.00000    7.07460   10.08299   36.38929
    1521      444        3     0.00000    9.69340   22.80659   47.35713
    1522      444        4     0.00000   10.10743   23.22589   46.45046
    1523      444        3     0.00000    9.66527    9.65081   34.21975
    1524      444        4     0.00000   10.08535   10.07720   33.31728
    1525      444        3     0.00000   16.57400   22.85470   31.39354
    1526      444        4     0.00000   16.16995   23.25612   32.31440
    1527      444        3     0.00000   16.63682    9.64582   44.60163
    1528      444        4     0.00000   16.21149   10.06406   45.50541
    1529      444        3     0.00000    3.48262    9.64345   31.45873
    1530      444        4     0.00000    3.06491   10.05801   32.36855
    1531      444        3     0.00000   16.62526    3.51364   47.38447
    1532      444        4     0.00000   16.20307    3.08147   46.48542
    1533      444        3     0.00000   16.68283   16.72857   34.18084
    1534      444        4     0.00000   16.25433   16.28772   33.28968
    1535      444        3     0.00000    3.51206    3.50155   34.24919
    1536      444        4     0.00000    3.10776    3.08830   33.33700
    1537      444        3     0.00000    9.70786    3.44976   31.48107
    1538      444        4     0.00000   10.12873    3.03494   32.39011
    1539      444        3     0.00000    9.63898   16.63998   44.65920
    1540      444        4     0.00000   10.06353   16.22805   45.56692
    1541      444        3     0.00000   22.80686    5.21420   42.92078
    1542      444        4     0.00000   23.22930    6.11930   42.50412
    1543      444        3     0.00000   22.77347   18.35079   29.78182
    1544      444        4     0.00000   23.21406   19.24563   29.35754
    1545      444        3     0.00000    9.72573    5.13692   29.73714
    1546      444        4     0.00000   10.16106    6.02545   29.29786
    1547      444        3     0.00000   22.88519   21.12548   35.93845
    1548      444        4     0.00000   23.34155   20.24563   36.37588
    1549      444        3     0.00000   22.82237    7.94972   49.09108
    1550      444        4     0.00000   23.24481    7.05015   49.51904
    1551      444        3     0.00000    9.68394    7.93921   35.93793
    1552      444        4     0.00000   10.11611    7.04174   36.36353
    1553      444        3     0.00000    3.48341    5.20422   35.96973
    1554      444        4     0.00000    3.05019    6.10037   36.39507
    1555      444        3     0.00000    3.48367   18.34948   49.08240
    1556      444        4     0.00000    3.05728   19.25247   49.50038
    1557      444        3     0.00000    3.50549   21.06081   42.92998
    1558      444        4     0.00000    3.09146   20.14941   42.51595
    1559      444        3     0.00000    3.47289    7.94263   29.72899
    1560      444        4     0.00000    3.04545    7.04568   29.29760
    1561      444        3     0.00000   16.52668   21.18910   29.62857
    1562      444        4     0.00000   16.08872   20.29952   29.18824
    1563      444        3     0.00000   16.63840    7.94762   42.87188
    1564      444        4     0.00000   16.21438    7.05173   42.43656
    1565      444        3     0.00000    9.63820   18.33160   42.92183
    1566      444        4     0.00000   10.06432   19.22723   42.48677
    1567      444        3     0.00000    9.71706   21.10156   49.08056
    1568      444        4     0.00000   10.15370   20.21093   49.51326
    1569      444        3     0.00000   16.61500    5.24312   49.08634
    1570      444        4     0.00000   16.17889    6.14112   49.50669
    1571      444        3     0.00000   16.70596   18.48881   35.85039
    1572      444        4     0.00000   16.30612   19.41756   36.23918
    1573      444        3     0.00000    3.47316   16.61264   47.38920
    1574      444        4     0.00000    3.03888   16.17179   46.49961
    1575      444        3     0.00000    3.47841   22.79766   44.62266
    1576      444        4     0.00000    3.04361   23.23351   45.51408
    1577      444        3     0.00000   22.80975    9.65739   47.37027
    1578      444        4     0.00000   23.23377   10.08036   46.46781
    1579      444        3     0.00000   22.80239   22.78346   34.17085
    1580      444        4     0.00000   23.17568   23.16674   33.22869
    1581      444        3     0.00000   22.76112   16.61790   31.47818
    1582      444        4     0.00000   23.18093   16.18493   32.37802
    1583      444        3     0.00000   22.80265    3.48946   44.62345
    1584      444        4     0.00000   23.22930    3.05281   45.51934
    1585      444        3     0.00000   21.08736    3.50733   42.90895
    1586      444        4     0.00000   20.18332    3.08699   42.48519
    1587      444        3     0.00000   18.34080    3.53967   49.09397
    1588      444        4     0.00000   19.24169    3.12511   49.52535
    1589      444        3     0.00000   21.15124   22.81685   35.94634
    1590      444        4     0.00000   20.24720   23.22904   36.37693
    1591      444        3     0.00000    7.98495   22.80055   49.07662
    1592      444        4     0.00000    7.07959   23.21852   49.50117
    1593      444        3     0.00000    5.19712   22.79634   42.91105
    1594      444        4     0.00000    6.09380   23.22667   42.48388
    1595      444        3     0.00000   18.26956   22.87731   29.66484
    1596      444        4     0.00000   19.18754   23.28240   29.25817
    1597      444        3     0.00000   21.06949   16.62342   49.08845
    1598      444        4     0.00000   20.15467   16.21017   49.49512
    1599      444        3     0.00000    7.99231   16.62946   35.93135
    1600      444        4     0.00000    7.10851   16.18861   36.37273
    1601      444        3     0.00000    5.21368    9.62453   49.11395
    1602      444        4     0.00000    6.11562   10.04566   49.54112
    1603      444        3     0.00000    7.92896    9.66869   42.92341
    1604      444        4     0.00000    7.02492   10.08956   42.49991
    1605      444        3     0.00000    5.21105   16.63183   29.76237
    1606      444        4     0.00000    6.11115   16.20307   29.34282
    1607      444        3     0.00000   18.38497   16.62710   42.88661
    1608      444        4     0.00000   19.30163   16.21359   42.48335
    1609      444        3     0.00000   16.71910    3.54387   31.54338
    1610      444        4     0.00000   16.30586    3.12826   32.45662
    1611      444        3     0.00000   16.63104   16.60686   44.56246
    1612      444        4     0.00000   16.19124   16.17521   45.45152
    1613      444        3     0.00000    9.67684   16.65444   34.18847
    1614      444        4     0.00000   10.07641   16.25302   33.26681
    1615      444        3     0.00000    9.68104   22.85181   31.45058
    1616      444        4     0.00000   10.12452   23.27688   32.34227
    1617      444        3     0.00000   16.62867   22.81159   47.32243
    1618      444        4     0.00000   16.19282   23.24218   46.42943
    1619      444        3     0.00000   16.59345    9.66948   34.25576
    1620      444        4     0.00000   16.16522   10.09271   33.35593
    1621      444        3     0.00000    3.49576    7.91003   49.10869
    1622      444        4     0.00000    3.06885    7.00888   49.53245
    1623      444        3     0.00000    3.46448    5.16925   42.87057
    1624      444        4     0.00000    3.03362    6.06304   42.43472
    1625      444        3     0.00000   22.80607   21.12075   42.93182
    1626      444        4     0.00000   23.23009   20.22538   42.49544
    1627      444        3     0.00000   22.77452    7.95551   29.80259
    1628      444        4     0.00000   23.21984    7.08459   29.33993
    1629      444        3     0.00000   22.80580    5.15716   35.91321
    1630      444        4     0.00000   23.22194    6.07435   36.30858
    1631      444        3     0.00000   22.78819   18.33476   49.10317
    1632      444        4     0.00000   23.20117   19.24195   49.52746
    1633      129        5     0.00000   17.83082   11.90001   39.78095
    1634      129        6     0.00000   17.61368   11.51909   40.66870
    1635      129        6     0.00000   17.26878   11.38766   39.14689
    1636      130        5     0.00000   14.85687   24.90016   49.99065
    1637      130        6     0.00000   14.47201   23.98876   49.95095
    1638      130        6     0.00000   15.41654   24.96851   49.17677
    1639      131        5     0.00000   18.91441   15.12869   39.35088
    1640      131        6     0.00000   19.50063   14.90471   38.58512
    1641      131        6     0.00000   19.52981   15.19046   40.12375
    1642      132        5     0.00000   17.05243   11.82403   29.60964
    1643      132        6     0.00000   17.21384   11.71941   28.63830
    1644      132        6     0.00000   16.32216   12.48991   29.67036
    1645      133        5     0.00000   13.76040   11.75805   31.10673
    1646      133        6     0.00000   13.33690   12.07298   30.26920
    1647      133        6     0.00000   13.00936   11.66552   31.74501
    1648      134        5     0.00000    1.07333   15.61186   35.28704
    1649      134        6     0.00000    0.87355   15.06507   34.48710
    1650      134        6     0.00000    2.06018   15.58715   35.36432
    1651      135        5     0.00000   25.68328   24.75821   40.13637
    1652      135        6     0.00000   25.83549   25.54395   40.71943
    1653      135        6     0.00000   25.95667   25.06157   39.23416
    1654      136        5     0.00000   24.04922   13.35767   29.35517
    1655      136        6     0.00000   24.53581   12.95862   28.59125
    1656      136        6     0.00000   24.34733   12.83612   30.14223
    1657      137        5     0.00000   12.76514   15.75776   40.92264
    1658      137        6     0.00000   12.36162   15.06192   41.50044
    1659      137        6     0.00000   12.07587   16.46674   40.87006
    1660      138        5     0.00000    2.57963   11.76804   27.47322
    1661      138        6     0.00000    1.98263   11.07825   27.08916
    1662      138        6     0.00000    2.34698   11.79275   28.43510
    1663      139        5     0.00000   13.13028   15.09136   26.60572
    1664      139        6     0.00000   13.63317   15.78404   26.10835
    1665      139        6     0.00000   13.82875   14.53248   27.03001
    1666      140        5     0.00000   13.03170    2.28994   48.42783
    1667      140        6     0.00000   12.33586    2.79204   48.92152
    1668      140        6     0.00000   13.26855    2.87590   47.66759
    1669      141        5     0.00000   23.43882    1.14852   48.66022
    1670      141        6     0.00000   22.59866    1.29836   49.16232
    1671      141        6     0.00000   23.18409    0.53154   47.92889
    1672      142        5     0.00000   21.26402   19.68990   45.94363
    1673      142        6     0.00000   21.40755   18.79007   45.55614
    1674      142        6     0.00000   20.88705   19.51666   46.84267
    1675      143        5     0.00000   11.86872   25.32129   30.31126
    1676      143        6     0.00000   12.55037   25.12151   29.62121
    1677      143        6     0.00000   12.17656   24.82866   31.11331
    1678      144        5     0.00000    6.20789   12.87949   37.43082
    1679      144        6     0.00000    5.48050   12.45416   36.91242
    1680      144        6     0.00000    5.88560   12.86057   38.36640
    1681      145        5     0.00000    8.81118   23.61863   40.62190
    1682      145        6     0.00000    8.26623   24.16252   41.24387
    1683      145        6     0.00000    9.73047   23.97272   40.72232
    1684      146        5     0.00000    5.38928    7.53017   44.27356
    1685      146        6     0.00000    5.68949    8.25335   44.87923
    1686      146        6     0.00000    5.30989    7.96366   43.38739
    1687      147        5     0.00000   20.57633    7.40294   45.23937
    1688      147        6     0.00000   19.85499    7.12875   44.61845
    1689      147        6     0.00000   20.42859    6.85431   46.05062
    1690      148        5     0.00000    6.96603    7.39189   31.59070
    1691      148        6     0.00000    7.10930    7.01913   30.68665
    1692      148        6     0.00000    7.52964    8.20498   31.61830
    1693      149        5     0.00000   16.08162   11.73965   48.85633
    1694      149        6     0.00000   15.62921   12.53328   49.23829
    1695      149        6     0.00000   16.37710   12.03223   47.95859
    1696      150        5     0.00000    8.00624    1.32360   51.59947
    1697      150        6     0.00000    8.14872    0.85856   50.73696
    1698      150        6     0.00000    7.02229    1.39457   51.68385
    1699      151        5     0.00000    0.08307    3.58593   41.33457
    1700      151        6     0.00000    0.42271    4.38955   40.86664
    1701      151        6     0.00000    0.89642    3.13089   41.66842
    1702      152        5     0.00000   14.47464    3.16480   36.27204
    1703      152        6     0.00000   13.95914    2.34041   36.08566
    1704      152        6     0.00000   15.31664    3.05203   35.76311
    1705      153        5     0.00000    9.71680   14.74173   51.87654
    1706      153        6     0.00000   10.09771   14.67890   50.96567
    1707      153        6     0.00000   10.36059   14.25330   52.44804
    1708      154        5     0.00000   24.67619   10.35349   26.58416
    1709      154        6     0.00000   23.90885   10.52173   25.98165
    1710      154        6     0.00000   24.28923    9.85060   27.34441
    1711      155        5     0.00000   24.49638   15.71990   26.64095
    1712      155        6     0.00000   24.49270   14.83558   26.19616
    1713      155        6     0.00000   25.24296   16.20912   26.21245
    1714      156        5     0.00000   24.03950    8.35850   38.02045
    1715      156        6     0.00000   23.84838    8.03253   38.93291
    1716      156        6     0.00000   23.17278    8.70366   37.69317
    1717      157        5     0.00000   13.46046   23.27320   41.74019
    1718      157        6     0.00000   13.90972   23.94355   41.16580
    1719      157        6     0.00000   12.49359   23.42068   41.58457
    1720      158        5     0.00000    0.49658   16.29455   43.68129
    1721      158        6     0.00000    0.82281   15.53851   44.23044
    1722      158        6     0.00000   -0.44374   16.42205   43.96336
    1723      159        5     0.00000    3.70423   26.02765   36.55385
    1724      159        6     0.00000    3.56937   26.98427   36.33960
    1725      159        6     0.00000    3.99471   26.02397   37.49995
    1726      160        5     0.00000    2.63352    0.08465   42.00596
    1727      160        6     0.00000    3.60065    0.03996   42.21416
    1728      160        6     0.00000    2.18531   -0.10568   42.86794
    1729      161        5     0.00000   14.45677   26.04868   43.90815
    1730      161        6     0.00000   15.22516   25.42434   43.92340
    1731      161        6     0.00000   13.76908   25.60994   44.46966
    1732      162        5     0.00000    8.57879    1.49788   40.87085
    1733      162        6     0.00000    9.50912    1.70530   41.13636
    1734      162        6     0.00000    8.37532    0.64379   41.32747
    1735      163        5     0.00000   21.34315   11.62740   41.19603
    1736      163        6     0.00000   22.23431   11.42919   41.57931
    1737      163        6     0.00000   21.36207   12.60032   41.01228
    1738      164        5     0.00000   10.83403   12.33586   39.20078
    1739      164        6     0.00000   10.63319   13.18601   39.66713
    1740      164        6     0.00000   11.39423   11.82771   39.83984
    1741      165        5     0.00000    4.30438   15.01249   51.82896
    1742      165        6     0.00000    4.65191   14.47123   51.07660
    1743      165        6     0.00000    5.07278   15.56953   52.11024
    1744      166        5     0.00000    0.21793    1.71213   35.54466
    1745      166        6     0.00000   -0.13512    1.93348   34.64614
    1746      166        6     0.00000    1.18348    1.54862   35.39902
    1747      167        5     0.00000   15.28405   16.27142   48.38419
    1748      167        6     0.00000   15.12948   16.58004   49.31163
    1749      167        6     0.00000   16.21464   16.54219   48.18362
    1750      168        5     0.00000   14.93468    8.42369   51.12760
    1751      168        6     0.00000   14.85266    8.40293   50.14128
    1752      168        6     0.00000   15.40734    7.58485   51.35604
    1753      169        5     0.00000   25.63806   23.17147   51.95015
    1754      169        6     0.00000   25.03502   23.45722   51.21908
    1755      169        6     0.00000   25.53501   23.86915   52.64441
    1756      170        5     0.00000    3.20160   24.51189   30.38014
    1757      170        6     0.00000    3.47158   25.10389   29.63461
    1758      170        6     0.00000    2.29309   24.81814   30.62698
    1759      171        5     0.00000    9.26570   11.47230   52.53505
    1760      171        6     0.00000    9.25781   11.39712   51.54821
    1761      171        6     0.00000   10.03304   10.91579   52.82080
    1762      172        5     0.00000   11.54249   12.42156   49.55322
    1763      172        6     0.00000   12.00253   12.96151   50.24406
    1764      172        6     0.00000   11.82272   12.82692   48.69439
    1765      173        5     0.00000    4.55543   16.03509   37.71052
    1766      173        6     0.00000    4.64665   15.97384   36.72683
    1767      173        6     0.00000    5.23261   15.40576   38.06172
    1768      174        5     0.00000    9.60691   22.85917   36.75048
    1769      174        6     0.00000   10.48099   23.24560   37.00968
    1770      174        6     0.00000    9.01912   23.03109   37.52834
    1771      175        5     0.00000    0.78338   21.91464   41.23099
    1772      175        6     0.00000    1.64799   21.97038   40.75203
    1773      175        6     0.00000    0.87250   22.55765   41.97862
    1774      176        5     0.00000    0.21845   15.57637   49.01773
    1775      176        6     0.00000    0.03523   14.72990   49.49775
    1776      176        6     0.00000    0.12434   15.34425   48.05954
    1777      177        5     0.00000    9.85560   22.54293   43.61294
    1778      177        6     0.00000    8.90108   22.77242   43.74201
    1779      177        6     0.00000    9.96127   21.66649   44.05957
    1780      178        5     0.00000   10.68472   17.25143   50.21699
    1781      178        6     0.00000    9.78304   17.65916   50.20857
    1782      178        6     0.00000   11.21074   17.79244   49.57688
    1783      179        5     0.00000   20.33711   20.22591   33.83253
    1784      179        6     0.00000   20.03007   20.17439   34.76733
    1785      179        6     0.00000   19.97434   21.08027   33.50104
    1786      180        5     0.00000   11.73676   23.70459   50.79953
    1787      180        6     0.00000   10.76121   23.66095   50.96120
    1788      180        6     0.00000   12.13029   23.86968   51.69253
    1789      181        5     0.00000   16.56585   13.36030   36.44160
    1790      181        6     0.00000   16.01301   12.70284   36.93397
    1791      181        6     0.00000   16.20334   14.24147   36.71026
    1792      182        5     0.00000   22.29503   13.40630   51.45147
    1793      182        6     0.00000   22.28031   13.43101   50.46173
    1794      182        6     0.00000   21.35103   13.54169   51.71776
    1795      183        5     0.00000    5.89086    0.53233   28.27711
    1796      183        6     0.00000    5.30963    0.29574   27.51160
    1797      183        6     0.00000    5.27467    0.57413   29.05076
    1798      184        5     0.00000    1.74972    2.37695   38.74022
    1799      184        6     0.00000    2.30703    1.56019   38.76782
    1800      184        6     0.00000    2.32175    3.08304   39.13427
    1801      185        5     0.00000   25.29816   13.50278   45.10872
    1802      185        6     0.00000   24.52871   14.10793   45.25751
    1803      185        6     0.00000   25.44642   13.52539   44.12976
    1804      186        5     0.00000   14.95151   12.96966   42.12610
    1805      186        6     0.00000   15.92048   12.86398   42.29986
    1806      186        6     0.00000   14.89341   13.73490   41.50018
    1807      187        5     0.00000   12.68970   11.85532   27.35361
    1808      187        6     0.00000   12.63949   11.92051   26.36703
    1809      187        6     0.00000   12.93522   10.91211   27.52843
    1810      188        5     0.00000    9.13636    4.00338   35.75917
    1811      188        6     0.00000    8.35061    3.72578   35.22447
    1812      188        6     0.00000    9.90660    3.57410   35.30886
    1813      189        5     0.00000   24.02688   13.66261   36.12720
    1814      189        6     0.00000   23.96458   14.03248   37.04333
    1815      189        6     0.00000   24.96404   13.83006   35.85538
    1816      190        5     0.00000    3.88640    3.15534   50.33002
    1817      190        6     0.00000    4.65217    2.67059   49.93308
    1818      190        6     0.00000    3.11222    2.55755   50.18045
    1819      191        5     0.00000   17.24749    3.50339   38.30883
    1820      191        6     0.00000   16.74618    2.69819   38.02597
    1821      191        6     0.00000   16.54850    4.16137   38.55094
    1822      192        5     0.00000    0.17140    9.99650   29.30339
    1823      192        6     0.00000   -0.51314    9.55197   29.86069
    1824      192        6     0.00000    0.01052   10.96337   29.44140
    1825      193        5     0.00000   21.26980    1.51077   27.94535
    1826      193        6     0.00000   20.58106    1.21135   27.29972
    1827      193        6     0.00000   22.08815    1.01997   27.68116
    1828      194        5     0.00000    3.87747   11.17236   40.39819
    1829      194        6     0.00000    4.15086   11.19838   39.44710
    1830      194        6     0.00000    4.72499   11.05774   40.89687
    1831      195        5     0.00000   12.86346   12.19969   36.25732
    1832      195        6     0.00000   12.00227   12.68365   36.18424
    1833      195        6     0.00000   12.78538   11.67893   37.09591
    1834      196        5     0.00000   12.27960    2.56149   41.88083
    1835      196        6     0.00000   11.56668    2.59146   42.56747
    1836      196        6     0.00000   12.47466    3.51206   41.68420
    1837      197        5     0.00000    0.96503    4.72735   51.95856
    1838      197        6     0.00000    1.60277    5.40532   52.29636
    1839      197        6     0.00000    1.05178    3.96816   52.58842
    1840      198        5     0.00000   23.60811   17.11316   36.64665
    1841      198        6     0.00000   23.19513   16.81611   35.79702
    1842      198        6     0.00000   24.54554   16.79876   36.59039
    1843      199        5     0.00000   14.89262   15.38368   30.03918
    1844      199        6     0.00000   14.74541   14.45756   30.35595
    1845      199        6     0.00000   14.69415   15.94966   30.82703
    1846      200        5     0.00000    2.97158   12.10216   35.01391
    1847      200        6     0.00000    3.03573   12.56036   35.88903
    1848      200        6     0.00000    2.97185   12.83638   34.34935
    1849      201        5     0.00000    0.50920   10.18052   43.64580
    1850      201        6     0.00000    0.96976   10.87189   44.18497
    1851      201        6     0.00000   -0.37539   10.07694   44.07850
    1852      202        5     0.00000   25.08681   25.10810   46.47359
    1853      202        6     0.00000   25.98375   25.34022   46.82269
    1854      202        6     0.00000   25.20510   25.06551   45.49121
    1855      203        5     0.00000   22.14519   16.82846   42.00570
    1856      203        6     0.00000   22.07789   16.66443   41.03147
    1857      203        6     0.00000   22.64597   17.67888   42.08114
    1858      204        5     0.00000   12.75305    5.97918   52.14179
    1859      204        6     0.00000   13.45152    6.36246   52.72643
    1860      204        6     0.00000   13.14500    6.00258   51.23459
    1861      205        5     0.00000   13.80825   19.94647   51.03323
    1862      205        6     0.00000   13.18180   20.27559   50.34133
    1863      205        6     0.00000   13.67207   20.55582   51.80083
    1864      206        5     0.00000    8.46339   26.03080   37.83171
    1865      206        6     0.00000    8.68526   25.59916   38.69447
    1866      206        6     0.00000    7.71471   25.49322   37.46972
    1867      207        5     0.00000   22.97799   22.63204   27.22980
    1868      207        6     0.00000   22.01428   22.41727   27.17275
    1869      207        6     0.00000   23.04529   23.27031   27.98347
    1870      208        5     0.00000   11.04644    0.76629   50.57950
    1871      208        6     0.00000   11.99727    0.60883   50.80294
    1872      208        6     0.00000   10.92788    0.35462   49.68676
    1873      209        5     0.00000   25.22666   24.23429   36.10748
    1874      209        6     0.00000   24.96904   25.18512   36.20554
    1875      209        6     0.00000   24.72167   23.76347   36.81699
    1876      210        5     0.00000   12.33770   19.10631   38.47865
    1877      210        6     0.00000   12.65184   19.01378   37.54412
    1878      210        6     0.00000   12.34664   18.18360   38.83722
    1879      211        5     0.00000    2.47106   23.62546   38.32197
    1880      211        6     0.00000    2.79572   22.72642   38.57960
    1881      211        6     0.00000    1.54205   23.47667   38.01414
    1882      212        5     0.00000   22.26585    0.24185   41.57063
    1883      212        6     0.00000   23.24718    0.15378   41.47573
    1884      212        6     0.00000   21.90019   -0.55783   41.11638
    1885      213        5     0.00000   15.88210    8.88636   28.08783
    1886      213        6     0.00000   15.46254    8.05829   27.74583
    1887      213        6     0.00000   15.94729    8.74730   29.06601
    1888      214        5     0.00000    6.93790   13.68574   40.78568
    1889      214        6     0.00000    7.75256   14.10372   41.16212
    1890      214        6     0.00000    6.20657   14.31429   41.01018
    1891      215        5     0.00000   12.55799    9.09456   41.17211
    1892      215        6     0.00000   12.52776    9.06091   42.16080
    1893      215        6     0.00000   11.61951    9.25229   40.89845
    1894      216        5     0.00000    2.14720   12.98806   50.77613
    1895      216        6     0.00000    1.53337   12.47124   50.19622
    1896      216        6     0.00000    1.56071   13.39079   51.46435
    1897      217        5     0.00000   17.67572   12.22177   51.69410
    1898      217        6     0.00000   16.76958   12.45889   52.01166
    1899      217        6     0.00000   17.95437   11.47283   52.27691
    1900      218        5     0.00000   21.61023   22.00140   30.01579
    1901      218        6     0.00000   21.97064   21.21565   30.49738
    1902      218        6     0.00000   22.12048   22.76926   30.37698
    1903      219        5     0.00000   15.71149   25.55105   35.49760
    1904      219        6     0.00000   16.36580   24.95011   35.06017
    1905      219        6     0.00000   15.49304   26.22612   34.80702
    1906      220        5     0.00000   -0.03076    3.13273   29.67352
    1907      220        6     0.00000   -0.13906    3.97578   30.18088
    1908      220        6     0.00000   -0.53680    2.46028   30.19560
    1909      221        5     0.00000    8.16344   10.89765   39.73206
    1910      221        6     0.00000    7.87691   11.08140   38.80304
    1911      221        6     0.00000    8.84351   10.18367   39.64399
    1912      222        5     0.00000   14.46255   16.78141   37.76967
    1913      222        6     0.00000   14.34925   15.82190   37.55463
    1914      222        6     0.00000   15.34504   16.83635   38.21498
    1915      223        5     0.00000   21.42490   11.88292   27.78368
    1916      223        6     0.00000   21.04557   12.36635   28.55996
    1917      223        6     0.00000   20.66755   11.35506   27.42511
    1918      224        5     0.00000   20.01035    7.80987   33.31308
    1919      224        6     0.00000   20.03375    7.66897   34.29257
    1920      224        6     0.00000   20.07581    8.79146   33.20372
    1921      225        5     0.00000    2.38063   13.73674   39.24862
    1922      225        6     0.00000    2.30834   14.55246   38.69158
    1923      225        6     0.00000    2.66112   13.02802   38.61561
    1924      226        5     0.00000   17.41048   23.42278   42.30459
    1925      226        6     0.00000   17.70569   24.28266   41.91211
    1926      226        6     0.00000   16.42231   23.45144   42.25123
    1927      227        5     0.00000   11.77382   14.22780   32.26104
    1928      227        6     0.00000   12.31273   15.05429   32.34095
    1929      227        6     0.00000   11.04434   14.46571   31.63538
    1930      228        5     0.00000   24.10495    1.79967   38.78780
    1931      228        6     0.00000   23.13835    1.98342   38.89899
    1932      228        6     0.00000   24.14097    1.01077   38.19159
    1933      229        5     0.00000    4.36957   25.87465   50.00432
    1934      229        6     0.00000    4.53939   25.42250   49.14155
    1935      229        6     0.00000    4.91610   25.37177   50.65889
    1936      230        5     0.00000   10.79276   25.45405   34.91638
    1937      230        6     0.00000   11.57299   25.43459   35.52599
    1938      230        6     0.00000   10.22231   26.18380   35.26627
    1939      231        5     0.00000    7.88348   18.25353   47.49645
    1940      231        6     0.00000    7.09274   18.42125   46.92443
    1941      231        6     0.00000    8.00913   17.27220   47.46543
    1942      232        5     0.00000   16.17915    2.10251   40.80276
    1943      232        6     0.00000   15.94808    1.24578   40.36402
    1944      232        6     0.00000   15.41654    2.28731   41.40581
    1945      233        5     0.00000   11.66289   25.69642   46.68573
    1946      233        6     0.00000   11.58113   26.68248   46.66497
    1947      233        6     0.00000   11.22020   25.39464   45.85451
    1948      234        5     0.00000    7.27781   20.01902   32.74973
    1949      234        6     0.00000    6.83906   19.26588   32.27944
    1950      234        6     0.00000    8.22259   19.97854   32.45662
    1951      235        5     0.00000   14.43363    0.09385   27.51370
    1952      235        6     0.00000   13.99910    0.23817   26.63569
    1953      235        6     0.00000   14.90235    0.94558   27.70245
    1954      236        5     0.00000    9.94130   24.91515   27.53815
    1955      236        6     0.00000    9.75334   23.99901   27.21297
    1956      236        6     0.00000   10.91132   25.04001   27.38673
    1957      237        5     0.00000   18.97960   19.08975   31.12461
    1958      237        6     0.00000   18.27719   19.73170   31.39643
    1959      237        6     0.00000   18.91467   18.35631   31.78496
    1960      238        5     0.00000    0.76708   16.35712   40.71759
    1961      238        6     0.00000    1.04994   17.07925   40.10245
    1962      238        6     0.00000    1.60961   16.01538   41.10849
    1963      239        5     0.00000    9.83772    1.90955   27.89672
    1964      239        6     0.00000   10.46101    1.56255   27.21113
    1965      239        6     0.00000   10.19418    1.56965   28.75476
    1966      240        5     0.00000    1.87696   24.51557   51.24958
    1967      240        6     0.00000    1.41403   24.95589   50.49432
    1968      240        6     0.00000    1.64641   25.06604   52.04005
    1969      241        5     0.00000    2.32359    1.64378   31.29180
    1970      241        6     0.00000    2.13142    1.15930   30.45138
    1971      241        6     0.00000    2.09988    0.99947   32.00972
    1972      242        5     0.00000   25.45799   25.55867   31.49974
    1973      242        6     0.00000   24.69012   25.65673   30.88197
    1974      242        6     0.00000   25.18249   24.84391   32.12723
    1975      243        5     0.00000   12.59374    3.45949   27.49714
    1976      243        6     0.00000   13.52644    3.15166   27.61150
    1977      243        6     0.00000   12.23702    3.54045   28.41617
    1978      244        5     0.00000   23.96589   14.19731   40.81433
    1979      244        6     0.00000   24.35916   13.35084   41.14451
    1980      244        6     0.00000   24.28581   14.88500   41.45129
    1981      245        5     0.00000   24.92172    0.52628   26.90829
    1982      245        6     0.00000   25.76845    0.26104   26.46876
    1983      245        6     0.00000   25.18171    1.25130   27.53105
    1984      246        5     0.00000    3.13694    3.55833   28.46322
    1985      246        6     0.00000    3.58436    2.68163   28.56916
    1986      246        6     0.00000    3.46317    3.90034   27.59336
    1987      247        5     0.00000   18.07661    5.02809   34.72080
    1988      247        6     0.00000   17.91073    4.52625   35.55701
    1989      247        6     0.00000   18.98696    5.39743   34.83173
    1990      248        5     0.00000   13.75672    1.94084   30.31494
    1991      248        6     0.00000   14.01224    2.87642   30.12883
    1992      248        6     0.00000   13.39868    1.96081   31.23660
    1993      249        5     0.00000   25.50636   14.56639   31.85384
    1994      249        6     0.00000   25.94695   15.45124   31.79968
    1995      249        6     0.00000   25.61362   14.28747   32.79652
    1996      250        5     0.00000   13.44100    7.83432   37.36615
    1997      250        6     0.00000   14.22517    8.37270   37.64086
    1998      250        6     0.00000   12.81325    7.90372   38.12876
    1999      251        5     0.00000   13.39973   18.51457   27.87359
    2000      251        6     0.00000   13.81955   18.53060   28.77000
    2001      251        6     0.00000   12.70363   17.81373   27.93852
    2002      252        5     0.00000    3.70791   15.17784   43.05327
    2003      252        6     0.00000    4.58724   15.58399   42.85375
    2004      252        6     0.00000    3.52836   15.42679   43.99412
    2005      253        5     0.00000   19.26588   25.13018   52.36287
    2006      253        6     0.00000   20.20541   24.89438   52.56818
    2007      253        6     0.00000   19.05268   24.61284   51.54610
    2008      254        5     0.00000    0.21162   20.66807   28.04130
    2009      254        6     0.00000    1.00183   20.81528   27.46271
    2010      254        6     0.00000   -0.20242   21.56318   28.12937
    2011      255        5     0.00000    0.48396    7.48206   40.30803
    2012      255        6     0.00000   -0.34542    6.94290   40.34246
    2013      255        6     0.00000    0.22660    8.35903   40.68920
    2014      256        5     0.00000   25.28475   11.04381   38.56041
    2015      256        6     0.00000   24.66909   10.75017   39.27701
    2016      256        6     0.00000   24.90463   11.90001   38.24153
    2017      444        1     0.00000    8.29383   32.70741   24.94406
    2018      444        1     0.00000    8.32380   45.87028   11.81930
    2019      444        1     0.00000   21.44751   32.69873   11.80116
    2020      444        1     0.00000   21.39677   45.85030   24.95905
    2021      444        1     0.00000   18.03271   46.14368   24.90884
    2022      444        1     0.00000   18.03823   32.99683   11.81142
    2023      444        1     0.00000    4.86668   46.10819   11.81536
    2024      444        1     0.00000    4.87956   32.95977   24.98034
    2025      444        1     0.00000   18.03560   32.70057    1.30966
    2026      444        1     0.00000   18.07372   45.87554   14.45256
    2027      444        1     0.00000    4.87825   32.70372   14.45519
    2028      444        1     0.00000    4.91058   45.85556    1.29810
    2029      444        1     0.00000    8.26623   46.21649    1.30230
    2030      444        1     0.00000    8.26860   33.02181   14.47280
    2031      444        1     0.00000   21.42464   46.21124   14.46255
    2032      444        1     0.00000   21.39914   33.02470    1.33858
    2033      444        1     0.00000   24.96168   34.55860    6.45394
    2034      444        1     0.00000   24.97377   47.72016   19.59185
    2035      444        1     0.00000   11.82640   34.60145   19.57108
    2036      444        1     0.00000   11.83744   47.75775    6.37166
    2037      444        1     0.00000   24.95694   44.29853   19.87392
    2038      444        1     0.00000   24.97377   31.08018    6.67529
    2039      444        1     0.00000   11.85821   44.30720    6.68265
    2040      444        1     0.00000   11.82377   31.14459   19.81503
    2041      444        1     0.00000    1.30362   44.30747    6.36062
    2042      444        1     0.00000    1.31913   31.15248   19.53953
    2043      444        1     0.00000   14.47201   44.27908   19.50457
    2044      444        1     0.00000   14.51933   31.17745    6.44290
    2045      444        1     0.00000    1.34305   34.54572   19.87129
    2046      444        1     0.00000    1.33569   47.67206    6.70263
    2047      444        1     0.00000   14.46649   34.55755    6.71209
    2048      444        1     0.00000   14.49909   47.69282   19.77954
    2049      444        1     0.00000    6.42713   51.24695    8.30671
    2050      444        1     0.00000    6.43922   38.09800   21.45145
    2051      444        1     0.00000   19.53428   51.29216   21.38258
    2052      444        1     0.00000   19.50720   38.15294    8.30224
    2053      444        1     0.00000   19.89994   51.29873   18.02798
    2054      444        1     0.00000   19.83632   38.09905    4.94160
    2055      444        1     0.00000    6.72103   51.28349    4.88771
    2056      444        1     0.00000    6.70131   38.11561   18.01457
    2057      444        1     0.00000    6.41556   27.59152   17.98592
    2058      444        1     0.00000    6.41819   40.74414    4.84933
    2059      444        1     0.00000   19.60499   27.60519    4.84880
    2060      444        1     0.00000   19.58554   40.74072   17.98986
    2061      444        1     0.00000   19.86340   27.54578    8.31407
    2062      444        1     0.00000   19.84290   40.74730   21.42122
    2063      444        1     0.00000    6.72234   27.59546   21.40308
    2064      444        1     0.00000    6.74626   40.75545    8.24494
    2065      444        1     0.00000    6.44054   34.54861    1.30703
    2066      444        1     0.00000    6.45210   47.70597   14.46649
    2067      444        1     0.00000   19.58711   34.57989   14.43101
    2068      444        1     0.00000   19.51377   47.75933    1.23816
    2069      444        1     0.00000   19.81766   44.33034    1.33989
    2070      444        1     0.00000   19.88864   31.16273   14.44362
    2071      444        1     0.00000    6.70552   44.25279   14.45677
    2072      444        1     0.00000    6.74863   31.11856    1.32570
    2073      444        1     0.00000    6.43055   44.33586   24.95615
    2074      444        1     0.00000    6.42713   31.18402   11.83034
    2075      444        1     0.00000   19.60157   44.39685   11.77461
    2076      444        1     0.00000   19.55557   31.19638   24.96352
    2077      444        1     0.00000   19.90099   34.57937   24.98271
    2078      444        1     0.00000   19.96934   47.74119   11.84717
    2079      444        1     0.00000    6.75336   34.56412   11.83376
    2080      444        1     0.00000    6.77097   47.69992   24.94590
    2081      444        1     0.00000    8.29410   51.25036   19.83448
    2082      444        1     0.00000    8.28384   38.10589    6.71025
    2083      444        1     0.00000   21.40887   51.19910    6.65373
    2084      444        1     0.00000   21.42884   38.11456   19.85683
    2085      444        1     0.00000   17.98355   51.27350    6.38296
    2086      444        1     0.00000   18.00248   38.10563   19.55531
    2087      444        1     0.00000    4.86642   51.24563   19.56451
    2088      444        1     0.00000    4.88718   38.10379    6.39795
    2089      444        1     0.00000   18.02982   27.63857   19.88469
    2090      444        1     0.00000   18.01247   40.79093    6.73811
    2091      444        1     0.00000    4.87430   27.60755    6.75573
    2092      444        1     0.00000    4.85117   40.73047   19.88496
    2093      444        1     0.00000    8.29199   27.61491    6.46472
    2094      444        1     0.00000    8.27701   40.74993   19.60131
    2095      444        1     0.00000   21.39388   27.64120   19.55688
    2096      444        1     0.00000   21.37154   40.74756    6.39716
    2097      444        1     0.00000   24.97824   32.71424   18.00826
    2098      444        1     0.00000   24.96930   45.81823    4.85853
    2099      444        1     0.00000   11.87346   32.67218    4.82514
    2100      444        1     0.00000   11.81352   45.85477   17.98382
    2101      444        1     0.00000   24.97166   46.15787    8.21891
    2102      444        1     0.00000   24.98875   33.00893   21.41649
    2103      444        1     0.00000   11.86110   46.14788   21.38836
    2104      444        1     0.00000   11.84270   33.00236    8.25598
    2105      444        1     0.00000    1.32386   32.72029    8.29252
    2106      444        1     0.00000    1.31150   45.84636   21.43489
    2107      444        1     0.00000   14.45282   32.74736   21.42096
    2108      444        1     0.00000   14.51171   45.95230    8.19893
    2109      444        1     0.00000    1.31255   46.13947   18.01483
    2110      444        1     0.00000    1.31860   32.96766    4.82856
    2111      444        1     0.00000   14.44257   46.18337    4.78676
    2112      444        1     0.00000   14.46465   32.98947   17.96016
    2113      444        1     0.00000   17.95411   46.19730    1.24578
    2114      444        1     0.00000   18.03587   33.00446   14.43889
    2115      444        1     0.00000    4.88876   46.14394   14.45545
    2116      444        1     0.00000    4.87798   32.98658    1.30388
    2117      444        1     0.00000    8.32301   32.67165    1.30519
    2118      444        1     0.00000    8.26965   45.81639   14.45940
    2119      444        1     0.00000   21.44462   32.73396   14.45782
    2120      444        1     0.00000   21.38573   45.89210    1.33201
    2121      444        1     0.00000    8.33668   46.14052   24.95589
    2122      444        1     0.00000    8.31565   32.99999   11.83876
    2123      444        1     0.00000   21.51559   46.16418   11.83061
    2124      444        1     0.00000   21.44961   32.99894   24.97797
    2125      444        1     0.00000   18.02193   32.78627   24.93670
    2126      444        1     0.00000   18.03560   45.95651   11.80222
    2127      444        1     0.00000    4.86352   32.74789   11.82430
    2128      444        1     0.00000    4.86642   45.89894   24.94801
    2129      444        1     0.00000    1.30519   44.28617   19.86892
    2130      444        1     0.00000    1.33727   31.15721    6.72760
    2131      444        1     0.00000   14.50882   44.37187    6.65583
    2132      444        1     0.00000   14.46150   31.18323   19.85841
    2133      444        1     0.00000    1.31545   34.52863    6.39322
    2134      444        1     0.00000    1.32517   47.70018   19.58028
    2135      444        1     0.00000   14.46492   34.55387   19.52218
    2136      444        1     0.00000   14.43495   47.76091    6.33828
    2137      444        1     0.00000   24.99086   34.57726   19.85893
    2138      444        1     0.00000   24.98560   47.72463    6.65820
    2139      444        1     0.00000   11.83718   34.56202    6.69343
    2140      444        1     0.00000   11.86110   47.71622   19.83185
    2141      444        1     0.00000   24.95326   44.25831    6.42555
    2142      444        1     0.00000   24.97535   31.14853   19.56950
    2143      444        1     0.00000   11.83797   44.28880   19.54505
    2144      444        1     0.00000   11.86741   31.12119    6.40426
    2145      444        1     0.00000   19.83764   27.64199   17.98592
    2146      444        1     0.00000   19.80714   40.74493    4.83645
    2147      444        1     0.00000    6.72392   27.62096    4.90690
    2148      444        1     0.00000    6.70893   40.74861   18.04270
    2149      444        1     0.00000    6.43317   27.60361    8.32196
    2150      444        1     0.00000    6.41845   40.73967   21.44383
    2151      444        1     0.00000   19.58606   27.64015   21.45250
    2152      444        1     0.00000   19.58107   40.79803    8.29778
    2153      444        1     0.00000   19.88653   51.24774    8.25598
    2154      444        1     0.00000   19.85814   38.10747   21.41228
    2155      444        1     0.00000    6.73864   51.24852   21.40308
    2156      444        1     0.00000    6.72103   38.11009    8.27228
    2157      444        1     0.00000    6.42266   51.24511   17.99407
    2158      444        1     0.00000    6.44500   38.09669    4.83224
    2159      444        1     0.00000   19.54216   51.26693    4.81594
    2160      444        1     0.00000   19.57581   38.10747   18.00406
    2161      444        1     0.00000   19.84684   44.27750   24.97482
    2162      444        1     0.00000   19.88049   31.14117   11.82062
    2163      444        1     0.00000    6.76887   44.30089   11.81536
    2164      444        1     0.00000    6.73549   31.14117   24.95274
    2165      444        1     0.00000    6.44632   34.52101   24.96877
    2166      444        1     0.00000    6.42266   47.67994   11.82509
    2167      444        1     0.00000   19.58843   34.57306   11.80169
    2168      444        1     0.00000   19.59316   47.71228   24.91751
    2169      444        1     0.00000   19.85657   34.60592    1.32149
    2170      444        1     0.00000   19.86182   47.77247   14.47307
    2171      444        1     0.00000    6.70394   34.58436   14.46833
    2172      444        1     0.00000    6.69737   47.77537    1.29284
    2173      444        1     0.00000    6.47708   44.29721    1.30993
    2174      444        1     0.00000    6.44290   31.14170   14.45966
    2175      444        1     0.00000   19.61735   44.29669   14.41865
    2176      444        1     0.00000   19.59737   31.13171    1.30703
    2177      444        1     0.00000   18.08581   27.65540    6.45421
    2178      444        1     0.00000   18.00958   40.74598   19.54006
    2179      444        1     0.00000    4.85958   27.59204   19.55557
    2180      444        1     0.00000    4.86274   40.74966    6.41951
    2181      444        1     0.00000    8.27937   27.59861   19.83317
    2182      444        1     0.00000    8.30461   40.75387    6.67870
    2183      444        1     0.00000   21.42359   27.54210    6.74679
    2184      444        1     0.00000   21.41333   40.74782   19.86577
    2185      444        1     0.00000    8.28857   51.26219    6.44579
    2186      444        1     0.00000    8.26754   38.11299   19.57607
    2187      444        1     0.00000   21.45224   51.29689   19.60052
    2188      444        1     0.00000   21.40256   38.10720    6.50284
    2189      444        1     0.00000   17.98013   51.28822   19.80925
    2190      444        1     0.00000   17.94386   38.14690    6.74101
    2191      444        1     0.00000    4.87036   51.26193    6.73733
    2192      444        1     0.00000    4.87483   38.09248   19.88969
    2193      444        1     0.00000    1.31545   46.10898    8.26544
    2194      444        1     0.00000    1.33595   32.97160   21.42385
    2195      444        1     0.00000   14.49646   46.13789   21.35130
    2196      444        1     0.00000   14.45466   32.99762    8.28253
    2197      444        1     0.00000    1.32885   32.72186   17.98224
    2198      444        1     0.00000    1.31913   45.87554    4.80148
    2199      444        1     0.00000   14.51960   32.73685    4.87903
    2200      444        1     0.00000   14.45204   45.82980   17.92993
    2201      444        1     0.00000   24.96299   46.15892   18.02640
    2202      444        1     0.00000   24.96141   33.00682    4.87825
    2203      444        1     0.00000   11.82561   46.18521    4.82120
    2204      444        1     0.00000   11.82535   33.03837   18.00695
    2205      444        1     0.00000   24.97272   32.64116    8.24047
    2206      444        1     0.00000   24.96194   45.85766   21.44041
    2207      444        1     0.00000   11.81851   32.70767   21.37863
    2208      444        1     0.00000   11.84664   45.88159    8.23758
    2209      444        2     0.00000    7.37034   33.59856    0.00289
    2210      444        2     0.00000    7.34011   46.74146   13.14316
    2211      444        2     0.00000   20.51771   33.63984   13.11792
    2212      444        2     0.00000   20.45777   46.76985   -0.01866
    2213      444        2     0.00000   18.92676   45.23701   -0.01498
    2214      444        2     0.00000   19.00983   32.12539   13.12870
    2215      444        2     0.00000    5.83039   45.22465   13.13580
    2216      444        2     0.00000    5.83828   32.06230    0.00920
    2217      444        2     0.00000   18.93728   33.67007    0.00289
    2218      444        2     0.00000   19.02087   46.80009   13.14264
    2219      444        2     0.00000    5.82461   33.62406   13.14526
    2220      444        2     0.00000    5.84275   46.77669   -0.02261
    2221      444        2     0.00000    7.34615   45.28012   -0.01341
    2222      444        2     0.00000    7.33354   32.11540   13.15052
    2223      444        2     0.00000   20.50351   45.30141   13.12423
    2224      444        2     0.00000   20.46198   32.12276    0.00421
    2225      444        2     0.00000   -0.00079   33.58200    7.31540
    2226      444        2     0.00000   -0.00053   46.75540   20.48642
    2227      444        2     0.00000   13.14080   33.62590   20.44752
    2228      444        2     0.00000   13.14553   46.81612    7.28806
    2229      444        2     0.00000   -0.00920   45.25120   18.97697
    2230      444        2     0.00000   -0.00210   32.07019    5.80384
    2231      444        2     0.00000   13.15000   45.27565    5.76415
    2232      444        2     0.00000   13.14342   32.11777   18.93938
    2233      444        2     0.00000   -0.00999   45.23438    7.28990
    2234      444        2     0.00000    0.01104   32.10594   20.45093
    2235      444        2     0.00000   13.16629   45.24358   20.41676
    2236      444        2     0.00000   13.16025   32.08570    7.31619
    2237      444        2     0.00000    0.01630   33.62222   18.94700
    2238      444        2     0.00000    0.00736   46.74567    5.78308
    2239      444        2     0.00000   13.15788   33.61618    5.78202
    2240      444        2     0.00000   13.15604   46.74830   18.90705
    2241      444        2     0.00000    7.36166   26.28553    7.38559
    2242      444        2     0.00000    7.32565   39.42554   20.49168
    2243      444        2     0.00000   20.46329   26.32313   20.46855
    2244      444        2     0.00000   20.43385   39.45130    7.34247
    2245      444        2     0.00000   18.96120   26.32313   18.95042
    2246      444        2     0.00000   18.92466   39.44552    5.83854
    2247      444        2     0.00000    5.84459   26.29815    5.86667
    2248      444        2     0.00000    5.81304   39.42212   18.98565
    2249      444        2     0.00000    7.32749   26.27738   18.93701
    2250      444        2     0.00000    7.34300   39.42528    5.78728
    2251      444        2     0.00000   20.47459   26.25872    5.78676
    2252      444        2     0.00000   20.46855   39.42738   18.96094
    2253      444        2     0.00000   18.97434   26.26871    7.30383
    2254      444        2     0.00000   18.95463   39.42633   20.45646
    2255      444        2     0.00000    5.82855   26.27660   20.44936
    2256      444        2     0.00000    5.84012   39.42975    7.29778
    2257      444        3     0.00000    8.49967   30.93271   23.33761
    2258      444        3     0.00000    7.82065   31.61698   24.47035
    2259      444        3     0.00000    8.55014   44.07850   10.21890
    2260      444        3     0.00000    7.86113   44.77303   11.34507
    2261      444        3     0.00000   17.82819   47.91627   23.29450
    2262      444        3     0.00000   18.51010   47.23357   24.43040
    2263      444        3     0.00000   17.77746   34.79020   10.23703
    2264      444        3     0.00000   18.49170   34.09698   11.34139
    2265      444        3     0.00000    4.65322   34.75260   23.39597
    2266      444        3     0.00000    5.34775   34.05387   24.50768
    2267      444        3     0.00000   17.82661   30.94007    2.91848
    2268      444        3     0.00000   18.50694   31.60726    1.78101
    2269      444        3     0.00000   17.82767   44.06798   16.01301
    2270      444        3     0.00000   18.52981   44.76829   14.90366
    2271      444        3     0.00000    4.63009   30.90327   16.02169
    2272      444        3     0.00000    5.34039   31.60410   14.91943
    2273      444        3     0.00000    8.49309   47.99776    2.88326
    2274      444        3     0.00000    7.79410   47.31139    1.76655
    2275      444        3     0.00000    8.48521   34.79913   16.06532
    2276      444        3     0.00000    7.79594   34.11302   14.94362
    2277      444        3     0.00000   23.34918   34.78257    4.68135
    2278      444        3     0.00000   24.48324   34.09304    5.35958
    2279      444        3     0.00000   10.22284   34.80807   17.79165
    2280      444        3     0.00000   11.35164   34.12905   18.47934
    2281      444        3     0.00000   23.37520   44.06220   21.66649
    2282      444        3     0.00000   24.49060   44.76225   20.97196
    2283      444        3     0.00000   23.38282   30.86252    8.47943
    2284      444        3     0.00000   24.50243   31.54732    7.77228
    2285      444        3     0.00000   10.26832   44.08533    8.47128
    2286      444        3     0.00000   11.38634   44.77907    7.77570
    2287      444        3     0.00000    2.91428   44.08612    4.60143
    2288      444        3     0.00000    1.78442   44.77907    5.27309
    2289      444        3     0.00000   16.05875   44.05063   17.71226
    2290      444        3     0.00000   14.93153   44.73964   18.40127
    2291      444        3     0.00000   16.13683   30.97898    4.68845
    2292      444        3     0.00000   15.00172   31.65510    5.36063
    2293      444        3     0.00000    2.92663   34.75760   21.66307
    2294      444        3     0.00000    1.81018   34.06807   20.96381
    2295      444        3     0.00000   16.04035   34.78389    8.51097
    2296      444        3     0.00000   14.92785   34.09015    7.81224
    2297      444        3     0.00000    4.64008   49.64785    8.50992
    2298      444        3     0.00000    5.33434   50.77850    7.82827
    2299      444        3     0.00000    4.65795   36.49339   21.67122
    2300      444        3     0.00000    5.34696   37.62061   20.98248
    2301      444        3     0.00000   21.66990   49.70201   17.81110
    2302      444        3     0.00000   20.98905   50.82687   18.50248
    2303      444        3     0.00000   21.58999   36.48261    4.73550
    2304      444        3     0.00000   20.92254   37.62061    5.41925
    2305      444        3     0.00000    8.51123   49.71042    4.62982
    2306      444        3     0.00000    7.81802   50.81083    5.34486
    2307      444        3     0.00000    4.62378   29.17641   17.75958
    2308      444        3     0.00000    5.32041   28.06023   18.45647
    2309      444        3     0.00000    4.64139   42.34770    4.62877
    2310      444        3     0.00000    5.32724   41.22048    5.32251
    2311      444        3     0.00000   21.65939   29.12252    8.53463
    2312      444        3     0.00000   20.96171   28.00634    7.84799
    2313      444        3     0.00000   21.63941   42.32983   21.65571
    2314      444        3     0.00000   20.94226   41.21601   20.95908
    2315      444        3     0.00000    8.53148   42.35454    8.46865
    2316      444        3     0.00000    7.83826   41.22942    7.77412
    2317      444        3     0.00000    4.63219   34.78836    2.87116
    2318      444        3     0.00000    5.33934   34.08594    1.76707
    2319      444        3     0.00000    4.65375   47.91890   16.05560
    2320      444        3     0.00000    5.35458   47.23515   14.93310
    2321      444        3     0.00000   21.59945   44.10715    2.92900
    2322      444        3     0.00000   20.91045   44.80378    1.81124
    2323      444        3     0.00000   21.65334   30.94796   16.05060
    2324      444        3     0.00000   20.97433   31.63749   14.92496
    2325      444        3     0.00000    8.54278   30.89354    2.90508
    2326      444        3     0.00000    7.84983   31.58307    1.78469
    2327      444        3     0.00000    4.64980   44.09769   23.36363
    2328      444        3     0.00000    5.33723   44.80194   24.48087
    2329      444        3     0.00000    4.64087   30.94217   10.25780
    2330      444        3     0.00000    5.33145   31.64879   11.36294
    2331      444        3     0.00000   21.66780   34.79282   23.38046
    2332      444        3     0.00000   20.98721   34.09935   24.50821
    2333      444        3     0.00000   21.73720   47.96569   10.24413
    2334      444        3     0.00000   21.05897   47.26906   11.37136
    2335      444        3     0.00000    8.53253   34.78520   10.23651
    2336      444        3     0.00000    7.84773   34.09409   11.36400
    2337      444        3     0.00000    8.53542   49.66652   21.62890
    2338      444        3     0.00000    7.83379   50.78113   20.93358
    2339      444        3     0.00000    8.51202   36.51521    8.49835
    2340      444        3     0.00000    7.81592   37.63665    7.80645
    2341      444        3     0.00000   17.72541   49.72330    4.55070
    2342      444        3     0.00000   18.43807   50.81398    5.27440
    2343      444        3     0.00000   17.79323   36.51652   17.76273
    2344      444        3     0.00000   18.47855   37.63533   18.46383
    2345      444        3     0.00000    4.63903   36.51389    4.60958
    2346      444        3     0.00000    5.34748   37.62955    5.30253
    2347      444        3     0.00000   17.78718   29.23583   21.65913
    2348      444        3     0.00000   18.49143   28.11123   20.97985
    2349      444        3     0.00000   17.82556   42.43551    8.47154
    2350      444        3     0.00000   18.49564   41.28068    7.81723
    2351      444        3     0.00000    4.65585   29.20586    8.53410
    2352      444        3     0.00000    5.34223   28.07863    7.84957
    2353      444        3     0.00000    8.52674   29.18693    4.66321
    2354      444        3     0.00000    7.82380   28.08336    5.36851
    2355      444        3     0.00000    8.48389   42.34586   17.81952
    2356      444        3     0.00000    7.80172   41.22284   18.51089
    2357      444        3     0.00000   23.38230   30.93481   17.78455
    2358      444        3     0.00000   24.50505   31.62014   18.47645
    2359      444        3     0.00000   10.30012   30.87304    4.60879
    2360      444        3     0.00000   11.41105   31.57571    5.29833
    2361      444        3     0.00000   23.41016   47.94519    8.45761
    2362      444        3     0.00000   24.51320   47.25460    7.75256
    2363      444        3     0.00000   10.28120   47.94440   21.62968
    2364      444        3     0.00000   11.39528   47.24856   20.92885
    2365      444        3     0.00000   10.24781   34.78336    8.48600
    2366      444        3     0.00000   11.36847   34.09409    7.78832
    2367      444        3     0.00000    2.92216   30.93744    8.51938
    2368      444        3     0.00000    1.80151   31.62697    7.82459
    2369      444        3     0.00000   16.04245   30.96110   21.64835
    2370      444        3     0.00000   14.92522   31.65195   20.95461
    2371      444        3     0.00000    2.91664   47.91627   17.79007
    2372      444        3     0.00000    1.79231   47.22963   18.48407
    2373      444        3     0.00000    2.90192   34.77626    4.60485
    2374      444        3     0.00000    1.78626   34.06728    5.29701
    2375      444        3     0.00000   15.98304   48.00486    4.52625
    2376      444        3     0.00000   14.89420   47.29219    5.23892
    2377      444        3     0.00000   17.69412   48.02615    2.77968
    2378      444        3     0.00000   18.40836   47.30665    1.69242
    2379      444        3     0.00000   17.79770   34.79756   16.01774
    2380      444        3     0.00000   18.49485   34.10592   14.90235
    2381      444        3     0.00000    8.48232   44.05326   16.06585
    2382      444        3     0.00000    7.79647   44.72597   14.93310
    2383      444        3     0.00000    8.55513   47.93546   23.36495
    2384      444        3     0.00000    7.86797   47.23462   24.48166
    2385      444        3     0.00000   17.77930   30.98713   23.36889
    2386      444        3     0.00000   18.47435   31.68165   24.48113
    2387      444        3     0.00000   17.83608   44.20048   10.16842
    2388      444        3     0.00000   18.51141   44.87529   11.30564
    2389      444        3     0.00000    2.90061   44.06273   21.65045
    2390      444        3     0.00000    1.77838   44.75147   20.96329
    2391      444        3     0.00000   16.12132   44.19180    8.42369
    2392      444        3     0.00000   14.99041   44.86162    7.73469
    2393      444        3     0.00000   16.06112   34.78152   17.74407
    2394      444        3     0.00000   14.93757   34.08437   18.42887
    2395      444        3     0.00000   23.39387   34.79414   21.64441
    2396      444        3     0.00000   24.51820   34.10540   20.95224
    2397      444        3     0.00000   23.35023   44.05957    4.64060
    2398      444        3     0.00000   24.48508   44.73070    5.33092
    2399      444        3     0.00000   10.21522   44.07429   17.79454
    2400      444        3     0.00000   11.34743   44.76225   18.46226
    2401      444        3     0.00000   21.63915   29.21637   17.77509
    2402      444        3     0.00000   20.93305   28.10755   18.45989
    2403      444        3     0.00000   21.59761   42.34534    4.62746
    2404      444        3     0.00000   20.90282   41.21759    5.30464
    2405      444        3     0.00000    4.64034   42.34061   21.65361
    2406      444        3     0.00000    5.32461   41.20970   20.97354
    2407      444        3     0.00000   21.66964   49.65784    8.47128
    2408      444        3     0.00000   20.96407   50.75747    7.76913
    2409      444        3     0.00000   21.65098   36.51941   21.64020
    2410      444        3     0.00000   20.95698   37.64007   20.94830
    2411      444        3     0.00000    4.63508   49.65995   17.77667
    2412      444        3     0.00000    5.32908   50.77692   18.46672
    2413      444        3     0.00000   21.62837   44.06273   23.38177
    2414      444        3     0.00000   20.93463   44.75094   24.49901
    2415      444        3     0.00000   21.65939   30.89144   10.22783
    2416      444        3     0.00000   20.97380   31.60042   11.34218
    2417      444        3     0.00000    4.64271   47.90155   10.23151
    2418      444        3     0.00000    5.33197   47.20755   11.35059
    2419      444        3     0.00000   21.59236   34.77942    2.97264
    2420      444        3     0.00000   20.92780   34.11591    1.81676
    2421      444        3     0.00000   21.65361   47.97936   16.06927
    2422      444        3     0.00000   20.95593   47.30113   14.94257
    2423      444        3     0.00000    4.66952   44.07929    2.89272
    2424      444        3     0.00000    5.37772   44.76435    1.77548
    2425      444        3     0.00000   17.85527   29.24003    4.67609
    2426      444        3     0.00000   18.54112   28.11097    5.34854
    2427      444        3     0.00000   17.80427   42.33062   17.74118
    2428      444        3     0.00000   18.48749   41.21286   18.44675
    2429      444        3     0.00000    8.50361   29.19087   21.61575
    2430      444        3     0.00000    7.81382   28.06812   20.92964
    2431      444        3     0.00000    8.49020   36.53440   17.78718
    2432      444        3     0.00000    7.79804   37.64795   18.47987
    2433      444        3     0.00000   17.78114   49.67940   21.58999
    2434      444        3     0.00000   18.44911   50.81477   20.90414
    2435      444        3     0.00000   17.73592   36.54991    8.53174
    2436      444        3     0.00000   18.41441   37.67897    7.83800
    2437      444        3     0.00000    2.91638   47.89813    8.49467
    2438      444        3     0.00000    1.79704   47.20255    7.79962
    2439      444        3     0.00000   16.08399   47.92126   21.57132
    2440      444        3     0.00000   14.96886   47.22805   20.87654
    2441      444        3     0.00000    2.89482   30.91247   17.74775
    2442      444        3     0.00000    1.78784   31.61882   18.44412
    2443      444        3     0.00000   23.38020   47.95202   17.80926
    2444      444        3     0.00000   24.49822   47.25460   18.49748
    2445      444        3     0.00000   10.24623   47.98409    4.59407
    2446      444        3     0.00000   11.36347   47.28536    5.28229
    2447      444        3     0.00000   10.22757   30.92745   21.60103
    2448      444        3     0.00000   11.34901   31.61409   20.90834
    2449      444        3     0.00000    9.64740   31.49553   22.75086
    2450      444        4     0.00000   10.06012   32.40904   23.16095
    2451      444        3     0.00000    9.70208   44.63817    9.63583
    2452      444        4     0.00000   10.12584   45.54116   10.05801
    2453      444        3     0.00000   16.68256   47.34635   22.70907
    2454      444        4     0.00000   16.28614   46.42233   23.11074
    2455      444        3     0.00000   16.63078   34.21633    9.65581
    2456      444        4     0.00000   16.22463   33.29836   10.06590
    2457      444        3     0.00000    3.49471   47.33557    9.64713
    2458      444        4     0.00000    3.07726   46.42732   10.06459
    2459      444        3     0.00000   16.69545   31.52392    3.51942
    2460      444        4     0.00000   16.27142   32.42796    3.10092
    2461      444        3     0.00000   16.65522   44.61661   16.56900
    2462      444        4     0.00000   16.23514   45.51934   16.14261
    2463      444        3     0.00000    3.50786   44.64343    3.45423
    2464      444        4     0.00000    3.09277   45.54931    3.02810
    2465      444        3     0.00000    9.65870   47.43546    3.44003
    2466      444        4     0.00000   10.08351   46.54062    3.00182
    2467      444        3     0.00000    9.64082   34.24025   16.64261
    2468      444        4     0.00000   10.06275   33.33516   16.22279
    2469      444        3     0.00000   22.77479   35.93162    5.25495
    2470      444        4     0.00000   23.22589   36.37115    6.13533
    2471      444        3     0.00000   22.80738   49.10369   18.37813
    2472      444        4     0.00000   23.21879   49.50774   19.29453
    2473      444        3     0.00000    9.64845   35.96474   18.34475
    2474      444        4     0.00000   10.07510   36.39323   19.24301
    2475      444        3     0.00000   22.80580   42.90054   21.10945
    2476      444        4     0.00000   23.23219   42.48019   20.20725
    2477      444        3     0.00000   22.81054   29.69008    7.95603
    2478      444        4     0.00000   23.22773   29.24713    7.06067
    2479      444        3     0.00000    9.65896   29.76369   21.05424
    2480      444        4     0.00000   10.08614   29.33388   20.15677
    2481      444        3     0.00000    3.48341   42.93208    5.17609
    2482      444        4     0.00000    3.05255   42.51779    6.08092
    2483      444        3     0.00000    3.47053   29.75974   18.31609
    2484      444        4     0.00000    3.05203   29.34860   19.22671
    2485      444        3     0.00000    3.50339   35.91689   21.11024
    2486      444        4     0.00000    3.08068   36.34250   20.20909
    2487      444        3     0.00000    3.48604   49.06715    7.94683
    2488      444        4     0.00000    3.05781   49.50064    7.05199
    2489      444        3     0.00000    5.19265   49.07031    9.66895
    2490      444        4     0.00000    6.08433   49.50327   10.10533
    2491      444        3     0.00000   18.36736   49.08740   22.72826
    2492      444        4     0.00000   19.27560   49.50853   23.14308
    2493      444        3     0.00000   18.30584   35.97052    9.68157
    2494      444        4     0.00000   19.19858   36.40532   10.11296
    2495      444        3     0.00000   21.11155   49.14155   16.64655
    2496      444        4     0.00000   20.22223   49.58371   16.21517
    2497      444        3     0.00000   20.99168   35.88009    3.61143
    2498      444        4     0.00000   20.03506   36.24917    3.25681
    2499      444        3     0.00000    7.93816   49.14523    3.47684
    2500      444        4     0.00000    7.02781   49.56978    3.07122
    2501      444        3     0.00000    5.18397   29.74791   16.60212
    2502      444        4     0.00000    6.08880   29.32547   16.18441
    2503      444        3     0.00000   18.38155   29.78524    3.49208
    2504      444        4     0.00000   19.25457   29.33572    3.03993
    2505      444        3     0.00000   21.10340   29.71847    9.68289
    2506      444        4     0.00000   20.20251   29.30339   10.12005
    2507      444        3     0.00000    7.94289   29.77341   22.76716
    2508      444        4     0.00000    7.04148   29.35175   23.19250
    2509      444        3     0.00000    5.18660   35.94713    3.44450
    2510      444        4     0.00000    6.08302   36.37667    3.01549
    2511      444        3     0.00000   18.35395   35.95159   16.60186
    2512      444        4     0.00000   19.25378   36.38351   16.17968
    2513      444        3     0.00000   21.03269   42.94970    3.49287
    2514      444        4     0.00000   20.11760   42.54565    3.07779
    2515      444        3     0.00000    7.92212   42.91026   16.66022
    2516      444        4     0.00000    7.01703   42.48729   16.24619
    2517      444        3     0.00000    7.95630   29.77131    3.51785
    2518      444        4     0.00000    7.02518   29.37936    3.12984
    2519      444        3     0.00000    5.21473   42.94286   22.78951
    2520      444        4     0.00000    6.13034   42.53645   23.20144
    2521      444        3     0.00000    5.20238   29.77998    9.69603
    2522      444        4     0.00000    6.09643   29.35070   10.13504
    2523      444        3     0.00000   18.37813   43.02225    9.62269
    2524      444        4     0.00000   19.25641   42.57772   10.07300
    2525      444        3     0.00000   21.09867   35.94529   22.80028
    2526      444        4     0.00000   20.19542   36.37194   23.22299
    2527      444        3     0.00000    7.96760   35.94187    9.66369
    2528      444        4     0.00000    7.07460   36.37089   10.10139
    2529      444        3     0.00000    9.69340   49.09449   21.06923
    2530      444        4     0.00000   10.10743   49.51379   20.16256
    2531      444        3     0.00000    9.66527   35.93871    7.93185
    2532      444        4     0.00000   10.08535   36.36510    7.02938
    2533      444        3     0.00000   16.57400   49.14260    5.10564
    2534      444        4     0.00000   16.16995   49.54402    6.02650
    2535      444        3     0.00000   16.63682   35.93372   18.31373
    2536      444        4     0.00000   16.21149   36.35196   19.21751
    2537      444        3     0.00000    3.48262   35.93135    5.17083
    2538      444        4     0.00000    3.06491   36.34591    6.08065
    2539      444        3     0.00000   16.62526   29.80154   21.09657
    2540      444        4     0.00000   16.20307   29.36937   20.19752
    2541      444        3     0.00000   16.68283   43.01647    7.89294
    2542      444        4     0.00000   16.25433   42.57562    7.00178
    2543      444        3     0.00000    3.51206   29.78945    7.96129
    2544      444        4     0.00000    3.10776   29.37620    7.04910
    2545      444        3     0.00000    9.70786   29.73766    5.19317
    2546      444        4     0.00000   10.12873   29.32284    6.10221
    2547      444        3     0.00000    9.63898   42.92788   18.37130
    2548      444        4     0.00000   10.06353   42.51595   19.27902
    2549      444        3     0.00000   22.80686   31.50210   16.63288
    2550      444        4     0.00000   23.22930   32.40720   16.21622
    2551      444        3     0.00000   22.77347   44.63869    3.49392
    2552      444        4     0.00000   23.21406   45.53353    3.06964
    2553      444        3     0.00000    9.72573   31.42482    3.44924
    2554      444        4     0.00000   10.16106   32.31335    3.00996
    2555      444        3     0.00000   22.88519   47.41338    9.65055
    2556      444        4     0.00000   23.34155   46.53353   10.08798
    2557      444        3     0.00000   22.82237   34.23762   22.80318
    2558      444        4     0.00000   23.24481   33.33805   23.23114
    2559      444        3     0.00000    9.68394   34.22711    9.65003
    2560      444        4     0.00000   10.11611   33.32964   10.07563
    2561      444        3     0.00000    3.48341   31.49212    9.68183
    2562      444        4     0.00000    3.05019   32.38827   10.10717
    2563      444        3     0.00000    3.48367   44.63738   22.79450
    2564      444        4     0.00000    3.05728   45.54037   23.21248
    2565      444        3     0.00000    3.50549   47.34871   16.64208
    2566      444        4     0.00000    3.09146   46.43731   16.22805
    2567      444        3     0.00000    3.47289   34.23053    3.44109
    2568      444        4     0.00000    3.04545   33.33358    3.00970
    2569      444        3     0.00000   16.52668   47.47700    3.34067
    2570      444        4     0.00000   16.08872   46.58742    2.90034
    2571      444        3     0.00000   16.63840   34.23552   16.58398
    2572      444        4     0.00000   16.21438   33.33963   16.14866
    2573      444        3     0.00000    9.63820   44.61950   16.63393
    2574      444        4     0.00000   10.06432   45.51513   16.19887
    2575      444        3     0.00000    9.71706   47.38946   22.79266
    2576      444        4     0.00000   10.15370   46.49883   23.22536
    2577      444        3     0.00000   16.61500   31.53102   22.79844
    2578      444        4     0.00000   16.17889   32.42902   23.21879
    2579      444        3     0.00000   16.70596   44.77671    9.56249
    2580      444        4     0.00000   16.30612   45.70546    9.95128
    2581      444        3     0.00000    3.47316   42.90054   21.10130
    2582      444        4     0.00000    3.03888   42.45969   20.21171
    2583      444        3     0.00000    3.47841   49.08556   18.33476
    2584      444        4     0.00000    3.04361   49.52141   19.22618
    2585      444        3     0.00000   22.80975   35.94529   21.08237
    2586      444        4     0.00000   23.23377   36.36826   20.17991
    2587      444        3     0.00000   22.80239   49.07136    7.88295
    2588      444        4     0.00000   23.17568   49.45464    6.94079
    2589      444        3     0.00000   22.76112   42.90580    5.19028
    2590      444        4     0.00000   23.18093   42.47283    6.09012
    2591      444        3     0.00000   22.80265   29.77736   18.33555
    2592      444        4     0.00000   23.22930   29.34071   19.23144
    2593      444        3     0.00000   21.08736   29.79523   16.62105
    2594      444        4     0.00000   20.18332   29.37489   16.19729
    2595      444        3     0.00000   18.34080   29.82757   22.80607
    2596      444        4     0.00000   19.24169   29.41301   23.23745
    2597      444        3     0.00000   21.15124   49.10475    9.65844
    2598      444        4     0.00000   20.24720   49.51694   10.08903
    2599      444        3     0.00000    7.98495   49.08845   22.78872
    2600      444        4     0.00000    7.07959   49.50642   23.21327
    2601      444        3     0.00000    5.19712   49.08424   16.62315
    2602      444        4     0.00000    6.09380   49.51457   16.19598
    2603      444        3     0.00000   18.26956   49.16521    3.37694
    2604      444        4     0.00000   19.18754   49.57030    2.97027
    2605      444        3     0.00000   21.06949   42.91132   22.80055
    2606      444        4     0.00000   20.15467   42.49807   23.20722
    2607      444        3     0.00000    7.99231   42.91736    9.64345
    2608      444        4     0.00000    7.10851   42.47651   10.08483
    2609      444        3     0.00000    5.21368   35.91243   22.82605
    2610      444        4     0.00000    6.11562   36.33356   23.25322
    2611      444        3     0.00000    7.92896   35.95659   16.63551
    2612      444        4     0.00000    7.02492   36.37746   16.21201
    2613      444        3     0.00000    5.21105   42.91973    3.47447
    2614      444        4     0.00000    6.11115   42.49097    3.05492
    2615      444        3     0.00000   18.38497   42.91500   16.59871
    2616      444        4     0.00000   19.30163   42.50149   16.19545
    2617      444        3     0.00000   16.71910   29.83177    5.25548
    2618      444        4     0.00000   16.30586   29.41616    6.16872
    2619      444        3     0.00000   16.63104   42.89476   18.27456
    2620      444        4     0.00000   16.19124   42.46311   19.16362
    2621      444        3     0.00000    9.67684   42.94234    7.90057
    2622      444        4     0.00000   10.07641   42.54092    6.97891
    2623      444        3     0.00000    9.68104   49.13971    5.16268
    2624      444        4     0.00000   10.12452   49.56478    6.05437
    2625      444        3     0.00000   16.62867   49.09949   21.03453
    2626      444        4     0.00000   16.19282   49.53008   20.14153
    2627      444        3     0.00000   16.59345   35.95738    7.96786
    2628      444        4     0.00000   16.16522   36.38061    7.06803
    2629      444        3     0.00000    3.49576   34.19793   22.82079
    2630      444        4     0.00000    3.06885   33.29678   23.24455
    2631      444        3     0.00000    3.46448   31.45715   16.58267
    2632      444        4     0.00000    3.03362   32.35094   16.14682
    2633      444        3     0.00000   22.80607   47.40865   16.64392
    2634      444        4     0.00000   23.23009   46.51328   16.20754
    2635      444        3     0.00000   22.77452   34.24341    3.51469
    2636      444        4     0.00000   23.21984   33.37249    3.05203
    2637      444        3     0.00000   22.80580   31.44506    9.62531
    2638      444        4     0.00000   23.22194   32.36225   10.02068
    2639      444        3     0.00000   22.78819   44.62266   22.81527
    2640      444        4     0.00000   23.20117   45.52985   23.23956
    2641      257        5     0.00000   17.83082   38.18791   13.49305
    2642      257        6     0.00000   17.61368   37.80699   14.38080
    2643      257        6     0.00000   17.26878   37.67556   12.85899
    2644      258        5     0.00000   14.85687   51.18806   23.70275
    2645      258        6     0.00000   14.47201   50.27666   23.66305
    2646      258        6     0.00000   15.41654   51.25641   22.88887
    2647      259        5     0.00000   18.91441   41.41659   13.06298
    2648      259        6     0.00000   19.50063   41.19261   12.29722
    2649      259        6     0.00000   19.52981   41.47836   13.83585
    2650      260        5     0.00000   17.05243   38.11193    3.32174
    2651      260        6     0.00000   17.21384   38.00731    2.35040
    2652      260        6     0.00000   16.32216   38.77781    3.38246
    2653      261        5     0.00000   13.76040   38.04595    4.81883
    2654      261        6     0.00000   13.33690   38.36088    3.98130
    2655      261        6     0.00000   13.00936   37.95342    5.45711
    2656      262        5     0.00000    1.07333   41.89976    8.99914
    2657      262        6     0.00000    0.87355   41.35297    8.19920
    2658      262        6     0.00000    2.06018   41.87505    9.07642
    2659      263        5     0.00000   25.68328   51.04611   13.84847
    2660      263        6     0.00000   25.83549   51.83185   14.43153
    2661      263        6     0.00000   25.95667   51.34947   12.94626
    2662      264        5     0.00000   24.04922   39.64557    3.06727
    2663      264        6     0.00000   24.53581   39.24652    2.30335
    2664      264        6     0.00000   24.34733   39.12402    3.85433
    2665      265        5     0.00000   12.76514   42.04566   14.63474
    2666      265        6     0.00000   12.36162   41.34982   15.21254
    2667      265        6     0.00000   12.07587   42.75464   14.58216
    2668      266        5     0.00000    2.57963   38.05594    1.18532
    2669      266        6     0.00000    1.98263   37.36615    0.80126
    2670      266        6     0.00000    2.34698   38.08065    2.14720
    2671      267        5     0.00000   13.13028   41.37926    0.31782
    2672      267        6     0.00000   13.63317   42.07194   -0.17955
    2673      267        6     0.00000   13.82875   40.82038    0.74211
    2674      268        5     0.00000   13.03170   28.57784   22.13993
    2675      268        6     0.00000   12.33586   29.07994   22.63362
    2676      268        6     0.00000   13.26855   29.16380   21.37969
    2677      269        5     0.00000   23.43882   27.43642   22.37232
    2678      269        6     0.00000   22.59866   27.58626   22.87442
    2679      269        6     0.00000   23.18409   26.81944   21.64099
    2680      270        5     0.00000   21.26402   45.97780   19.65573
    2681      270        6     0.00000   21.40755   45.07797   19.26824
    2682      270        6     0.00000   20.88705   45.80456   20.55477
    2683      271        5     0.00000   11.86872   51.60919    4.02336
    2684      271        6     0.00000   12.55037   51.40941    3.33331
    2685      271        6     0.00000   12.17656   51.11656    4.82541
    2686      272        5     0.00000    6.20789   39.16739   11.14292
    2687      272        6     0.00000    5.48050   38.74206   10.62452
    2688      272        6     0.00000    5.88560   39.14847   12.07850
    2689      273        5     0.00000    8.81118   49.90653   14.33400
    2690      273        6     0.00000    8.26623   50.45042   14.95597
    2691      273        6     0.00000    9.73047   50.26062   14.43442
    2692      274        5     0.00000    5.38928   33.81807   17.98566
    2693      274        6     0.00000    5.68949   34.54125   18.59133
    2694      274        6     0.00000    5.30989   34.25156   17.09949
    2695      275        5     0.00000   20.57633   33.69084   18.95147
    2696      275        6     0.00000   19.85499   33.41665   18.33055
    2697      275        6     0.00000   20.42859   33.14221   19.76272
    2698      276        5     0.00000    6.96603   33.67979    5.30280
    2699      276        6     0.00000    7.10930   33.30703    4.39875
    2700      276        6     0.00000    7.52964   34.49288    5.33040
    2701      277        5     0.00000   16.08162   38.02755   22.56843
    2702      277        6     0.00000   15.62921   38.82118   22.95039
    2703      277        6     0.00000   16.37710   38.32013   21.67069
    2704      278        5     0.00000    8.00624   27.61150   25.31157
    2705      278        6     0.00000    8.14872   27.14646   24.44906
    2706      278        6     0.00000    7.02229   27.68247   25.39595
    2707      279        5     0.00000    0.08307   29.87383   15.04667
    2708      279        6     0.00000    0.42271   30.67745   14.57874
    2709      279        6     0.00000    0.89642   29.41879   15.38052
    2710      280        5     0.00000   14.47464   29.45270    9.98414
    2711      280        6     0.00000   13.95914   28.62831    9.79776
    2712      280        6     0.00000   15.31664   29.33993    9.47521
    2713      281        5     0.00000    9.71680   41.02963   25.58864
    2714      281        6     0.00000   10.09771   40.96680   24.67777
    2715      281        6     0.00000   10.36059   40.54120   26.16014
    2716      282        5     0.00000   24.67619   36.64139    0.29626
    2717      282        6     0.00000   23.90885   36.80963   -0.30625
    2718      282        6     0.00000   24.28923   36.13850    1.05651
    2719      283        5     0.00000   24.49638   42.00780    0.35305
    2720      283        6     0.00000   24.49270   41.12348   -0.09174
    2721      283        6     0.00000   25.24296   42.49702   -0.07545
    2722      284        5     0.00000   24.03950   34.64640   11.73255
    2723      284        6     0.00000   23.84838   34.32043   12.64501
    2724      284        6     0.00000   23.17278   34.99156   11.40527
    2725      285        5     0.00000   13.46046   49.56110   15.45229
    2726      285        6     0.00000   13.90972   50.23145   14.87790
    2727      285        6     0.00000   12.49359   49.70858   15.29667
    2728      286        5     0.00000    0.49658   42.58245   17.39339
    2729      286        6     0.00000    0.82281   41.82641   17.94254
    2730      286        6     0.00000   -0.44374   42.70995   17.67546
    2731      287        5     0.00000    3.70423   52.31555   10.26595
    2732      287        6     0.00000    3.56937   53.27217   10.05170
    2733      287        6     0.00000    3.99471   52.31187   11.21205
    2734      288        5     0.00000    2.63352   26.37255   15.71806
    2735      288        6     0.00000    3.60065   26.32786   15.92626
    2736      288        6     0.00000    2.18531   26.18222   16.58004
    2737      289        5     0.00000   14.45677   52.33658   17.62025
    2738      289        6     0.00000   15.22516   51.71224   17.63550
    2739      289        6     0.00000   13.76908   51.89784   18.18176
    2740      290        5     0.00000    8.57879   27.78578   14.58295
    2741      290        6     0.00000    9.50912   27.99320   14.84846
    2742      290        6     0.00000    8.37532   26.93169   15.03957
    2743      291        5     0.00000   21.34315   37.91530   14.90813
    2744      291        6     0.00000   22.23431   37.71709   15.29141
    2745      291        6     0.00000   21.36207   38.88822   14.72438
    2746      292        5     0.00000   10.83403   38.62376   12.91288
    2747      292        6     0.00000   10.63319   39.47391   13.37923
    2748      292        6     0.00000   11.39423   38.11561   13.55194
    2749      293        5     0.00000    4.30438   41.30039   25.54106
    2750      293        6     0.00000    4.65191   40.75913   24.78870
    2751      293        6     0.00000    5.07278   41.85743   25.82234
    2752      294        5     0.00000    0.21793   28.00003    9.25676
    2753      294        6     0.00000   -0.13512   28.22138    8.35824
    2754      294        6     0.00000    1.18348   27.83652    9.11112
    2755      295        5     0.00000   15.28405   42.55932   22.09629
    2756      295        6     0.00000   15.12948   42.86794   23.02373
    2757      295        6     0.00000   16.21464   42.83009   21.89572
    2758      296        5     0.00000   14.93468   34.71159   24.83970
    2759      296        6     0.00000   14.85266   34.69083   23.85338
    2760      296        6     0.00000   15.40734   33.87275   25.06814
    2761      297        5     0.00000   25.63806   49.45937   25.66225
    2762      297        6     0.00000   25.03502   49.74512   24.93118
    2763      297        6     0.00000   25.53501   50.15705   26.35651
    2764      298        5     0.00000    3.20160   50.79979    4.09224
    2765      298        6     0.00000    3.47158   51.39179    3.34671
    2766      298        6     0.00000    2.29309   51.10604    4.33908
    2767      299        5     0.00000    9.26570   37.76020   26.24715
    2768      299        6     0.00000    9.25781   37.68502   25.26031
    2769      299        6     0.00000   10.03304   37.20369   26.53290
    2770      300        5     0.00000   11.54249   38.70946   23.26532
    2771      300        6     0.00000   12.00253   39.24941   23.95616
    2772      300        6     0.00000   11.82272   39.11482   22.40649
    2773      301        5     0.00000    4.55543   42.32299   11.42262
    2774      301        6     0.00000    4.64665   42.26174   10.43893
    2775      301        6     0.00000    5.23261   41.69366   11.77382
    2776      302        5     0.00000    9.60691   49.14707   10.46258
    2777      302        6     0.00000   10.48099   49.53350   10.72178
    2778      302        6     0.00000    9.01912   49.31899   11.24044
    2779      303        5     0.00000    0.78338   48.20254   14.94309
    2780      303        6     0.00000    1.64799   48.25828   14.46413
    2781      303        6     0.00000    0.87250   48.84555   15.69072
    2782      304        5     0.00000    0.21845   41.86427   22.72983
    2783      304        6     0.00000    0.03523   41.01780   23.20985
    2784      304        6     0.00000    0.12434   41.63215   21.77164
    2785      305        5     0.00000    9.85560   48.83083   17.32504
    2786      305        6     0.00000    8.90108   49.06032   17.45411
    2787      305        6     0.00000    9.96127   47.95439   17.77167
    2788      306        5     0.00000   10.68472   43.53933   23.92909
    2789      306        6     0.00000    9.78304   43.94706   23.92067
    2790      306        6     0.00000   11.21074   44.08034   23.28898
    2791      307        5     0.00000   20.33711   46.51381    7.54463
    2792      307        6     0.00000   20.03007   46.46229    8.47943
    2793      307        6     0.00000   19.97434   47.36817    7.21314
    2794      308        5     0.00000   11.73676   49.99249   24.51163
    2795      308        6     0.00000   10.76121   49.94885   24.67330
    2796      308        6     0.00000   12.13029   50.15758   25.40463
    2797      309        5     0.00000   16.56585   39.64820   10.15370
    2798      309        6     0.00000   16.01301   38.99074   10.64607
    2799      309        6     0.00000   16.20334   40.52937   10.42236
    2800      310        5     0.00000   22.29503   39.69420   25.16357
    2801      310        6     0.00000   22.28031   39.71891   24.17383
    2802      310        6     0.00000   21.35103   39.82959   25.42986
    2803      311        5     0.00000    5.89086   26.82023    1.98921
    2804      311        6     0.00000    5.30963   26.58364    1.22370
    2805      311        6     0.00000    5.27467   26.86203    2.76286
    2806      312        5     0.00000    1.74972   28.66485   12.45232
    2807      312        6     0.00000    2.30703   27.84809   12.47992
    2808      312        6     0.00000    2.32175   29.37094   12.84637
    2809      313        5     0.00000   25.29816   39.79068   18.82082
    2810      313        6     0.00000   24.52871   40.39583   18.96961
    2811      313        6     0.00000   25.44642   39.81329   17.84186
    2812      314        5     0.00000   14.95151   39.25756   15.83820
    2813      314        6     0.00000   15.92048   39.15188   16.01196
    2814      314        6     0.00000   14.89341   40.02280   15.21228
    2815      315        5     0.00000   12.68970   38.14322    1.06571
    2816      315        6     0.00000   12.63949   38.20841    0.07913
    2817      315        6     0.00000   12.93522   37.20001    1.24053
    2818      316        5     0.00000    9.13636   30.29128    9.47127
    2819      316        6     0.00000    8.35061   30.01368    8.93657
    2820      316        6     0.00000    9.90660   29.86200    9.02096
    2821      317        5     0.00000   24.02688   39.95051    9.83930
    2822      317        6     0.00000   23.96458   40.32038   10.75543
    2823      317        6     0.00000   24.96404   40.11796    9.56748
    2824      318        5     0.00000    3.88640   29.44324   24.04212
    2825      318        6     0.00000    4.65217   28.95849   23.64518
    2826      318        6     0.00000    3.11222   28.84545   23.89255
    2827      319        5     0.00000   17.24749   29.79129   12.02093
    2828      319        6     0.00000   16.74618   28.98609   11.73807
    2829      319        6     0.00000   16.54850   30.44927   12.26304
    2830      320        5     0.00000    0.17140   36.28440    3.01549
    2831      320        6     0.00000   -0.51314   35.83987    3.57279
    2832      320        6     0.00000    0.01052   37.25127    3.15350
    2833      321        5     0.00000   21.26980   27.79867    1.65745
    2834      321        6     0.00000   20.58106   27.49925    1.01182
    2835      321        6     0.00000   22.08815   27.30787    1.39326
    2836      322        5     0.00000    3.87747   37.46026   14.11029
    2837      322        6     0.00000    4.15086   37.48628   13.15920
    2838      322        6     0.00000    4.72499   37.34564   14.60897
    2839      323        5     0.00000   12.86346   38.48759    9.96942
    2840      323        6     0.00000   12.00227   38.97155    9.89634
    2841      323        6     0.00000   12.78538   37.96683   10.80801
    2842      324        5     0.00000   12.27960   28.84939   15.59293
    2843      324        6     0.00000   11.56668   28.87936   16.27957
    2844      324        6     0.00000   12.47466   29.79996   15.39630
    2845      325        5     0.00000    0.96503   31.01525   25.67066
    2846      325        6     0.00000    1.60277   31.69322   26.00846
    2847      325        6     0.00000    1.05178   30.25606   26.30052
    2848      326        5     0.00000   23.60811   43.40106   10.35875
    2849      326        6     0.00000   23.19513   43.10401    9.50912
    2850      326        6     0.00000   24.54554   43.08666   10.30249
    2851      327        5     0.00000   14.89262   41.67158    3.75128
    2852      327        6     0.00000   14.74541   40.74546    4.06805
    2853      327        6     0.00000   14.69415   42.23756    4.53913
    2854      328        5     0.00000    2.97158   38.39006    8.72601
    2855      328        6     0.00000    3.03573   38.84826    9.60113
    2856      328        6     0.00000    2.97185   39.12428    8.06145
    2857      329        5     0.00000    0.50920   36.46842   17.35790
    2858      329        6     0.00000    0.96976   37.15979   17.89707
    2859      329        6     0.00000   -0.37539   36.36484   17.79060
    2860      330        5     0.00000   25.08681   51.39600   20.18569
    2861      330        6     0.00000   25.98375   51.62812   20.53479
    2862      330        6     0.00000   25.20510   51.35341   19.20331
    2863      331        5     0.00000   22.14519   43.11636   15.71780
    2864      331        6     0.00000   22.07789   42.95233   14.74357
    2865      331        6     0.00000   22.64597   43.96678   15.79324
    2866      332        5     0.00000   12.75305   32.26708   25.85389
    2867      332        6     0.00000   13.45152   32.65036   26.43853
    2868      332        6     0.00000   13.14500   32.29048   24.94669
    2869      333        5     0.00000   13.80825   46.23437   24.74533
    2870      333        6     0.00000   13.18180   46.56349   24.05343
    2871      333        6     0.00000   13.67207   46.84372   25.51293
    2872      334        5     0.00000    8.46339   52.31870   11.54381
    2873      334        6     0.00000    8.68526   51.88706   12.40657
    2874      334        6     0.00000    7.71471   51.78112   11.18182
    2875      335        5     0.00000   22.97799   48.91994    0.94190
    2876      335        6     0.00000   22.01428   48.70517    0.88485
    2877      335        6     0.00000   23.04529   49.55821    1.69557
    2878      336        5     0.00000   11.04644   27.05419   24.29160
    2879      336        6     0.00000   11.99727   26.89673   24.51504
    2880      336        6     0.00000   10.92788   26.64252   23.39886
    2881      337        5     0.00000   25.22666   50.52219    9.81958
    2882      337        6     0.00000   24.96904   51.47302    9.91764
    2883      337        6     0.00000   24.72167   50.05137   10.52909
    2884      338        5     0.00000   12.33770   45.39421   12.19075
    2885      338        6     0.00000   12.65184   45.30168   11.25622
    2886      338        6     0.00000   12.34664   44.47150   12.54932
    2887      339        5     0.00000    2.47106   49.91336   12.03407
    2888      339        6     0.00000    2.79572   49.01432   12.29170
    2889      339        6     0.00000    1.54205   49.76457   11.72624
    2890      340        5     0.00000   22.26585   26.52975   15.28273
    2891      340        6     0.00000   23.24718   26.44168   15.18783
    2892      340        6     0.00000   21.90019   25.73007   14.82848
    2893      341        5     0.00000   15.88210   35.17426    1.79993
    2894      341        6     0.00000   15.46254   34.34619    1.45793
    2895      341        6     0.00000   15.94729   35.03520    2.77811
    2896      342        5     0.00000    6.93790   39.97364   14.49778
    2897      342        6     0.00000    7.75256   40.39162   14.87422
    2898      342        6     0.00000    6.20657   40.60219   14.72228
    2899      343        5     0.00000   12.55799   35.38246   14.88421
    2900      343        6     0.00000   12.52776   35.34881   15.87290
    2901      343        6     0.00000   11.61951   35.54019   14.61055
    2902      344        5     0.00000    2.14720   39.27596   24.48823
    2903      344        6     0.00000    1.53337   38.75914   23.90832
    2904      344        6     0.00000    1.56071   39.67869   25.17645
    2905      345        5     0.00000   17.67572   38.50967   25.40620
    2906      345        6     0.00000   16.76958   38.74679   25.72376
    2907      345        6     0.00000   17.95437   37.76073   25.98901
    2908      346        5     0.00000   21.61023   48.28930    3.72789
    2909      346        6     0.00000   21.97064   47.50355    4.20948
    2910      346        6     0.00000   22.12048   49.05716    4.08908
    2911      347        5     0.00000   15.71149   51.83895    9.20970
    2912      347        6     0.00000   16.36580   51.23801    8.77227
    2913      347        6     0.00000   15.49304   52.51402    8.51912
    2914      348        5     0.00000   -0.03076   29.42063    3.38562
    2915      348        6     0.00000   -0.13906   30.26368    3.89298
    2916      348        6     0.00000   -0.53680   28.74818    3.90770
    2917      349        5     0.00000    8.16344   37.18555   13.44416
    2918      349        6     0.00000    7.87691   37.36930   12.51514
    2919      349        6     0.00000    8.84351   36.47157   13.35609
    2920      350        5     0.00000   14.46255   43.06931   11.48177
    2921      350        6     0.00000   14.34925   42.10980   11.26673
    2922      350        6     0.00000   15.34504   43.12425   11.92708
    2923      351        5     0.00000   21.42490   38.17082    1.49578
    2924      351        6     0.00000   21.04557   38.65425    2.27206
    2925      351        6     0.00000   20.66755   37.64296    1.13721
    2926      352        5     0.00000   20.01035   34.09777    7.02518
    2927      352        6     0.00000   20.03375   33.95687    8.00467
    2928      352        6     0.00000   20.07581   35.07936    6.91582
    2929      353        5     0.00000    2.38063   40.02464   12.96072
    2930      353        6     0.00000    2.30834   40.84036   12.40368
    2931      353        6     0.00000    2.66112   39.31592   12.32771
    2932      354        5     0.00000   17.41048   49.71068   16.01669
    2933      354        6     0.00000   17.70569   50.57056   15.62421
    2934      354        6     0.00000   16.42231   49.73934   15.96333
    2935      355        5     0.00000   11.77382   40.51570    5.97314
    2936      355        6     0.00000   12.31273   41.34219    6.05305
    2937      355        6     0.00000   11.04434   40.75361    5.34748
    2938      356        5     0.00000   24.10495   28.08757   12.49990
    2939      356        6     0.00000   23.13835   28.27132   12.61109
    2940      356        6     0.00000   24.14097   27.29867   11.90369
    2941      357        5     0.00000    4.36957   52.16255   23.71642
    2942      357        6     0.00000    4.53939   51.71040   22.85365
    2943      357        6     0.00000    4.91610   51.65967   24.37099
    2944      358        5     0.00000   10.79276   51.74195    8.62848
    2945      358        6     0.00000   11.57299   51.72249    9.23809
    2946      358        6     0.00000   10.22231   52.47170    8.97837
    2947      359        5     0.00000    7.88348   44.54143   21.20855
    2948      359        6     0.00000    7.09274   44.70915   20.63653
    2949      359        6     0.00000    8.00913   43.56010   21.17753
    2950      360        5     0.00000   16.17915   28.39041   14.51486
    2951      360        6     0.00000   15.94808   27.53368   14.07612
    2952      360        6     0.00000   15.41654   28.57521   15.11791
    2953      361        5     0.00000   11.66289   51.98432   20.39783
    2954      361        6     0.00000   11.58113   52.97038   20.37707
    2955      361        6     0.00000   11.22020   51.68254   19.56661
    2956      362        5     0.00000    7.27781   46.30692    6.46183
    2957      362        6     0.00000    6.83906   45.55378    5.99154
    2958      362        6     0.00000    8.22259   46.26644    6.16872
    2959      363        5     0.00000   14.43363   26.38175    1.22580
    2960      363        6     0.00000   13.99910   26.52607    0.34779
    2961      363        6     0.00000   14.90235   27.23348    1.41455
    2962      364        5     0.00000    9.94130   51.20305    1.25025
    2963      364        6     0.00000    9.75334   50.28691    0.92507
    2964      364        6     0.00000   10.91132   51.32791    1.09883
    2965      365        5     0.00000   18.97960   45.37765    4.83671
    2966      365        6     0.00000   18.27719   46.01960    5.10853
    2967      365        6     0.00000   18.91467   44.64421    5.49706
    2968      366        5     0.00000    0.76708   42.64502   14.42969
    2969      366        6     0.00000    1.04994   43.36715   13.81455
    2970      366        6     0.00000    1.60961   42.30328   14.82059
    2971      367        5     0.00000    9.83772   28.19745    1.60882
    2972      367        6     0.00000   10.46101   27.85045    0.92323
    2973      367        6     0.00000   10.19418   27.85755    2.46686
    2974      368        5     0.00000    1.87696   50.80347   24.96168
    2975      368        6     0.00000    1.41403   51.24379   24.20642
    2976      368        6     0.00000    1.64641   51.35394   25.75215
    2977      369        5     0.00000    2.32359   27.93168    5.00390
    2978      369        6     0.00000    2.13142   27.44720    4.16348
    2979      369        6     0.00000    2.09988   27.28737    5.72182
    2980      370        5     0.00000   25.45799   51.84657    5.21184
    2981      370        6     0.00000   24.69012   51.94463    4.59407
    2982      370        6     0.00000   25.18249   51.13181    5.83933
    2983      371        5     0.00000   12.59374   29.74739    1.20924
    2984      371        6     0.00000   13.52644   29.43956    1.32360
    2985      371        6     0.00000   12.23702   29.82835    2.12827
    2986      372        5     0.00000   23.96589   40.48521   14.52643
    2987      372        6     0.00000   24.35916   39.63874   14.85661
    2988      372        6     0.00000   24.28581   41.17290   15.16339
    2989      373        5     0.00000   24.92172   26.81418    0.62039
    2990      373        6     0.00000   25.76845   26.54894    0.18086
    2991      373        6     0.00000   25.18171   27.53920    1.24315
    2992      374        5     0.00000    3.13694   29.84623    2.17532
    2993      374        6     0.00000    3.58436   28.96953    2.28126
    2994      374        6     0.00000    3.46317   30.18824    1.30546
    2995      375        5     0.00000   18.07661   31.31599    8.43290
    2996      375        6     0.00000   17.91073   30.81415    9.26911
    2997      375        6     0.00000   18.98696   31.68533    8.54383
    2998      376        5     0.00000   13.75672   28.22874    4.02704
    2999      376        6     0.00000   14.01224   29.16432    3.84093
    3000      376        6     0.00000   13.39868   28.24871    4.94870
    3001      377        5     0.00000   25.50636   40.85429    5.56594
    3002      377        6     0.00000   25.94695   41.73914    5.51178
    3003      377        6     0.00000   25.61362   40.57537    6.50862
    3004      378        5     0.00000   13.44100   34.12222   11.07825
    3005      378        6     0.00000   14.22517   34.66060   11.35296
    3006      378        6     0.00000   12.81325   34.19162   11.84086
    3007      379        5     0.00000   13.39973   44.80247    1.58569
    3008      379        6     0.00000   13.81955   44.81850    2.48210
    3009      379        6     0.00000   12.70363   44.10163    1.65062
    3010      380        5     0.00000    3.70791   41.46574   16.76537
    3011      380        6     0.00000    4.58724   41.87189   16.56585
    3012      380        6     0.00000    3.52836   41.71469   17.70622
    3013      381        5     0.00000   19.26588   51.41808   26.07497
    3014      381        6     0.00000   20.20541   51.18228   26.28028
    3015      381        6     0.00000   19.05268   50.90074   25.25820
    3016      382        5     0.00000    0.21162   46.95597    1.75340
    3017      382        6     0.00000    1.00183   47.10318    1.17481
    3018      382        6     0.00000   -0.20242   47.85108    1.84147
    3019      383        5     0.00000    0.48396   33.76996   14.02013
    3020      383        6     0.00000   -0.34542   33.23080   14.05456
    3021      383        6     0.00000    0.22660   34.64693   14.40130
    3022      384        5     0.00000   25.28475   37.33171   12.27251
    3023      384        6     0.00000   24.66909   37.03807   12.98911
    3024      384        6     0.00000   24.90463   38.18791   11.95363
    3025      444        1     0.00000    8.29383   32.70741   51.23196
    3026      444        1     0.00000    8.32380   45.87028   38.10720
    3027      444        1     0.00000   21.44751   32.69873   38.08906
    3028      444        1     0.00000   21.39677   45.85030   51.24695
    3029      444        1     0.00000   18.03271   46.14368   51.19674
    3030      444        1     0.00000   18.03823   32.99683   38.09932
    3031      444        1     0.00000    4.86668   46.10819   38.10326
    3032      444        1     0.00000    4.87956   32.95977   51.26824
    3033      444        1     0.00000   18.03560   32.70057   27.59756
    3034      444        1     0.00000   18.07372   45.87554   40.74046
    3035      444        1     0.00000    4.87825   32.70372   40.74309
    3036      444        1     0.00000    4.91058   45.85556   27.58600
    3037      444        1     0.00000    8.26623   46.21649   27.59020
    3038      444        1     0.00000    8.26860   33.02181   40.76070
    3039      444        1     0.00000   21.42464   46.21124   40.75045
    3040      444        1     0.00000   21.39914   33.02470   27.62648
    3041      444        1     0.00000   24.96168   34.55860   32.74184
    3042      444        1     0.00000   24.97377   47.72016   45.87975
    3043      444        1     0.00000   11.82640   34.60145   45.85898
    3044      444        1     0.00000   11.83744   47.75775   32.65956
    3045      444        1     0.00000   24.95694   44.29853   46.16182
    3046      444        1     0.00000   24.97377   31.08018   32.96319
    3047      444        1     0.00000   11.85821   44.30720   32.97055
    3048      444        1     0.00000   11.82377   31.14459   46.10293
    3049      444        1     0.00000    1.30362   44.30747   32.64852
    3050      444        1     0.00000    1.31913   31.15248   45.82743
    3051      444        1     0.00000   14.47201   44.27908   45.79247
    3052      444        1     0.00000   14.51933   31.17745   32.73080
    3053      444        1     0.00000    1.34305   34.54572   46.15919
    3054      444        1     0.00000    1.33569   47.67206   32.99053
    3055      444        1     0.00000   14.46649   34.55755   32.99999
    3056      444        1     0.00000   14.49909   47.69282   46.06744
    3057      444        1     0.00000    6.42713   51.24695   34.59461
    3058      444        1     0.00000    6.43922   38.09800   47.73935
    3059      444        1     0.00000   19.53428   51.29216   47.67048
    3060      444        1     0.00000   19.50720   38.15294   34.59014
    3061      444        1     0.00000   19.89994   51.29873   44.31588
    3062      444        1     0.00000   19.83632   38.09905   31.22950
    3063      444        1     0.00000    6.72103   51.28349   31.17561
    3064      444        1     0.00000    6.70131   38.11561   44.30247
    3065      444        1     0.00000    6.41556   27.59152   44.27382
    3066      444        1     0.00000    6.41819   40.74414   31.13723
    3067      444        1     0.00000   19.60499   27.60519   31.13670
    3068      444        1     0.00000   19.58554   40.74072   44.27776
    3069      444        1     0.00000   19.86340   27.54578   34.60197
    3070      444        1     0.00000   19.84290   40.74730   47.70912
    3071      444        1     0.00000    6.72234   27.59546   47.69098
    3072      444        1     0.00000    6.74626   40.75545   34.53284
    3073      444        1     0.00000    6.44054   34.54861   27.59493
    3074      444        1     0.00000    6.45210   47.70597   40.75439
    3075      444        1     0.00000   19.58711   34.57989   40.71891
    3076      444        1     0.00000   19.51377   47.75933   27.52606
    3077      444        1     0.00000   19.81766   44.33034   27.62779
    3078      444        1     0.00000   19.88864   31.16273   40.73152
    3079      444        1     0.00000    6.70552   44.25279   40.74467
    3080      444        1     0.00000    6.74863   31.11856   27.61360
    3081      444        1     0.00000    6.43055   44.33586   51.24405
    3082      444        1     0.00000    6.42713   31.18402   38.11824
    3083      444        1     0.00000   19.60157   44.39685   38.06251
    3084      444        1     0.00000   19.55557   31.19638   51.25142
    3085      444        1     0.00000   19.90099   34.57937   51.27061
    3086      444        1     0.00000   19.96934   47.74119   38.13507
    3087      444        1     0.00000    6.75336   34.56412   38.12166
    3088      444        1     0.00000    6.77097   47.69992   51.23380
    3089      444        1     0.00000    8.29410   51.25036   46.12238
    3090      444        1     0.00000    8.28384   38.10589   32.99815
    3091      444        1     0.00000   21.40887   51.19910   32.94163
    3092      444        1     0.00000   21.42884   38.11456   46.14473
    3093      444        1     0.00000   17.98355   51.27350   32.67086
    3094      444        1     0.00000   18.00248   38.10563   45.84321
    3095      444        1     0.00000    4.86642   51.24563   45.85241
    3096      444        1     0.00000    4.88718   38.10379   32.68585
    3097      444        1     0.00000   18.02982   27.63857   46.17259
    3098      444        1     0.00000   18.01247   40.79093   33.02601
    3099      444        1     0.00000    4.87430   27.60755   33.04363
    3100      444        1     0.00000    4.85117   40.73047   46.17286
    3101      444        1     0.00000    8.29199   27.61491   32.75262
    3102      444        1     0.00000    8.27701   40.74993   45.88921
    3103      444        1     0.00000   21.39388   27.64120   45.84478
    3104      444        1     0.00000   21.37154   40.74756   32.68506
    3105      444        1     0.00000   24.97824   32.71424   44.29616
    3106      444        1     0.00000   24.96930   45.81823   31.14643
    3107      444        1     0.00000   11.87346   32.67218   31.11304
    3108      444        1     0.00000   11.81352   45.85477   44.27172
    3109      444        1     0.00000   24.97166   46.15787   34.50681
    3110      444        1     0.00000   24.98875   33.00893   47.70439
    3111      444        1     0.00000   11.86110   46.14788   47.67626
    3112      444        1     0.00000   11.84270   33.00236   34.54388
    3113      444        1     0.00000    1.32386   32.72029   34.58042
    3114      444        1     0.00000    1.31150   45.84636   47.72279
    3115      444        1     0.00000   14.45282   32.74736   47.70886
    3116      444        1     0.00000   14.51171   45.95230   34.48683
    3117      444        1     0.00000    1.31255   46.13947   44.30273
    3118      444        1     0.00000    1.31860   32.96766   31.11646
    3119      444        1     0.00000   14.44257   46.18337   31.07466
    3120      444        1     0.00000   14.46465   32.98947   44.24806
    3121      444        1     0.00000   17.95411   46.19730   27.53368
    3122      444        1     0.00000   18.03587   33.00446   40.72679
    3123      444        1     0.00000    4.88876   46.14394   40.74335
    3124      444        1     0.00000    4.87798   32.98658   27.59178
    3125      444        1     0.00000    8.32301   32.67165   27.59309
    3126      444        1     0.00000    8.26965   45.81639   40.74730
    3127      444        1     0.00000   21.44462   32.73396   40.74572
    3128      444        1     0.00000   21.38573   45.89210   27.61991
    3129      444        1     0.00000    8.33668   46.14052   51.24379
    3130      444        1     0.00000    8.31565   32.99999   38.12666
    3131      444        1     0.00000   21.51559   46.16418   38.11851
    3132      444        1     0.00000   21.44961   32.99894   51.26587
    3133      444        1     0.00000   18.02193   32.78627   51.22460
    3134      444        1     0.00000   18.03560   45.95651   38.09012
    3135      444        1     0.00000    4.86352   32.74789   38.11220
    3136      444        1     0.00000    4.86642   45.89894   51.23591
    3137      444        1     0.00000    1.30519   44.28617   46.15682
    3138      444        1     0.00000    1.33727   31.15721   33.01550
    3139      444        1     0.00000   14.50882   44.37187   32.94373
    3140      444        1     0.00000   14.46150   31.18323   46.14631
    3141      444        1     0.00000    1.31545   34.52863   32.68112
    3142      444        1     0.00000    1.32517   47.70018   45.86818
    3143      444        1     0.00000   14.46492   34.55387   45.81008
    3144      444        1     0.00000   14.43495   47.76091   32.62618
    3145      444        1     0.00000   24.99086   34.57726   46.14683
    3146      444        1     0.00000   24.98560   47.72463   32.94610
    3147      444        1     0.00000   11.83718   34.56202   32.98133
    3148      444        1     0.00000   11.86110   47.71622   46.11975
    3149      444        1     0.00000   24.95326   44.25831   32.71345
    3150      444        1     0.00000   24.97535   31.14853   45.85740
    3151      444        1     0.00000   11.83797   44.28880   45.83295
    3152      444        1     0.00000   11.86741   31.12119   32.69216
    3153      444        1     0.00000   19.83764   27.64199   44.27382
    3154      444        1     0.00000   19.80714   40.74493   31.12435
    3155      444        1     0.00000    6.72392   27.62096   31.19480
    3156      444        1     0.00000    6.70893   40.74861   44.33060
    3157      444        1     0.00000    6.43317   27.60361   34.60986
    3158      444        1     0.00000    6.41845   40.73967   47.73173
    3159      444        1     0.00000   19.58606   27.64015   47.74040
    3160      444        1     0.00000   19.58107   40.79803   34.58568
    3161      444        1     0.00000   19.88653   51.24774   34.54388
    3162      444        1     0.00000   19.85814   38.10747   47.70018
    3163      444        1     0.00000    6.73864   51.24852   47.69098
    3164      444        1     0.00000    6.72103   38.11009   34.56018
    3165      444        1     0.00000    6.42266   51.24511   44.28197
    3166      444        1     0.00000    6.44500   38.09669   31.12014
    3167      444        1     0.00000   19.54216   51.26693   31.10384
    3168      444        1     0.00000   19.57581   38.10747   44.29196
    3169      444        1     0.00000   19.84684   44.27750   51.26272
    3170      444        1     0.00000   19.88049   31.14117   38.10852
    3171      444        1     0.00000    6.76887   44.30089   38.10326
    3172      444        1     0.00000    6.73549   31.14117   51.24064
    3173      444        1     0.00000    6.44632   34.52101   51.25667
    3174      444        1     0.00000    6.42266   47.67994   38.11299
    3175      444        1     0.00000   19.58843   34.57306   38.08959
    3176      444        1     0.00000   19.59316   47.71228   51.20541
    3177      444        1     0.00000   19.85657   34.60592   27.60939
    3178      444        1     0.00000   19.86182   47.77247   40.76097
    3179      444        1     0.00000    6.70394   34.58436   40.75623
    3180      444        1     0.00000    6.69737   47.77537   27.58074
    3181      444        1     0.00000    6.47708   44.29721   27.59783
    3182      444        1     0.00000    6.44290   31.14170   40.74756
    3183      444        1     0.00000   19.61735   44.29669   40.70655
    3184      444        1     0.00000   19.59737   31.13171   27.59493
    3185      444        1     0.00000   18.08581   27.65540   32.74211
    3186      444        1     0.00000   18.00958   40.74598   45.82796
    3187      444        1     0.00000    4.85958   27.59204   45.84347
    3188      444        1     0.00000    4.86274   40.74966   32.70741
    3189      444        1     0.00000    8.27937   27.59861   46.12107
    3190      444        1     0.00000    8.30461   40.75387   32.96660
    3191      444        1     0.00000   21.42359   27.54210   33.03469
    3192      444        1     0.00000   21.41333   40.74782   46.15367
    3193      444        1     0.00000    8.28857   51.26219   32.73369
    3194      444        1     0.00000    8.26754   38.11299   45.86397
    3195      444        1     0.00000   21.45224   51.29689   45.88842
    3196      444        1     0.00000   21.40256   38.10720   32.79074
    3197      444        1     0.00000   17.98013   51.28822   46.09715
    3198      444        1     0.00000   17.94386   38.14690   33.02891
    3199      444        1     0.00000    4.87036   51.26193   33.02523
    3200      444        1     0.00000    4.87483   38.09248   46.17759
    3201      444        1     0.00000    1.31545   46.10898   34.55334
    3202      444        1     0.00000    1.33595   32.97160   47.71175
    3203      444        1     0.00000   14.49646   46.13789   47.63920
    3204      444        1     0.00000   14.45466   32.99762   34.57043
    3205      444        1     0.00000    1.32885   32.72186   44.27014
    3206      444        1     0.00000    1.31913   45.87554   31.08938
    3207      444        1     0.00000   14.51960   32.73685   31.16693
    3208      444        1     0.00000   14.45204   45.82980   44.21783
    3209      444        1     0.00000   24.96299   46.15892   44.31430
    3210      444        1     0.00000   24.96141   33.00682   31.16615
    3211      444        1     0.00000   11.82561   46.18521   31.10910
    3212      444        1     0.00000   11.82535   33.03837   44.29485
    3213      444        1     0.00000   24.97272   32.64116   34.52837
    3214      444        1     0.00000   24.96194   45.85766   47.72831
    3215      444        1     0.00000   11.81851   32.70767   47.66653
    3216      444        1     0.00000   11.84664   45.88159   34.52548
    3217      444        2     0.00000    7.37034   33.59856   26.29079
    3218      444        2     0.00000    7.34011   46.74146   39.43106
    3219      444        2     0.00000   20.51771   33.63984   39.40582
    3220      444        2     0.00000   20.45777   46.76985   26.26924
    3221      444        2     0.00000   18.92676   45.23701   26.27292
    3222      444        2     0.00000   19.00983   32.12539   39.41660
    3223      444        2     0.00000    5.83039   45.22465   39.42370
    3224      444        2     0.00000    5.83828   32.06230   26.29710
    3225      444        2     0.00000   18.93728   33.67007   26.29079
    3226      444        2     0.00000   19.02087   46.80009   39.43054
    3227      444        2     0.00000    5.82461   33.62406   39.43316
    3228      444        2     0.00000    5.84275   46.77669   26.26529
    3229      444        2     0.00000    7.34615   45.28012   26.27449
    3230      444        2     0.00000    7.33354   32.11540   39.43842
    3231      444        2     0.00000   20.50351   45.30141   39.41213
    3232      444        2     0.00000   20.46198   32.12276   26.29211
    3233      444        2     0.00000   -0.00079   33.58200   33.60330
    3234      444        2     0.00000   -0.00053   46.75540   46.77432
    3235      444        2     0.00000   13.14080   33.62590   46.73542
    3236      444        2     0.00000   13.14553   46.81612   33.57596
    3237      444        2     0.00000   -0.00920   45.25120   45.26487
    3238      444        2     0.00000   -0.00210   32.07019   32.09174
    3239      444        2     0.00000   13.15000   45.27565   32.05205
    3240      444        2     0.00000   13.14342   32.11777   45.22728
    3241      444        2     0.00000   -0.00999   45.23438   33.57780
    3242      444        2     0.00000    0.01104   32.10594   46.73883
    3243      444        2     0.00000   13.16629   45.24358   46.70466
    3244      444        2     0.00000   13.16025   32.08570   33.60409
    3245      444        2     0.00000    0.01630   33.62222   45.23490
    3246      444        2     0.00000    0.00736   46.74567   32.07098
    3247      444        2     0.00000   13.15788   33.61618   32.06992
    3248      444        2     0.00000   13.15604   46.74830   45.19495
    3249      444        2     0.00000    7.36166   26.28553   33.67349
    3250      444        2     0.00000    7.32565   39.42554   46.77958
    3251      444        2     0.00000   20.46329   26.32313   46.75645
    3252      444        2     0.00000   20.43385   39.45130   33.63037
    3253      444        2     0.00000   18.96120   26.32313   45.23832
    3254      444        2     0.00000   18.92466   39.44552   32.12644
    3255      444        2     0.00000    5.84459   26.29815   32.15457
    3256      444        2     0.00000    5.81304   39.42212   45.27355
    3257      444        2     0.00000    7.32749   26.27738   45.22491
    3258      444        2     0.00000    7.34300   39.42528   32.07518
    3259      444        2     0.00000   20.47459   26.25872   32.07466
    3260      444        2     0.00000   20.46855   39.42738   45.24884
    3261      444        2     0.00000   18.97434   26.26871   33.59173
    3262      444        2     0.00000   18.95463   39.42633   46.74436
    3263      444        2     0.00000    5.82855   26.27660   46.73726
    3264      444        2     0.00000    5.84012   39.42975   33.58568
    3265      444        3     0.00000    8.49967   30.93271   49.62551
    3266      444        3     0.00000    7.82065   31.61698   50.75825
    3267      444        3     0.00000    8.55014   44.07850   36.50680
    3268      444        3     0.00000    7.86113   44.77303   37.63297
    3269      444        3     0.00000   17.82819   47.91627   49.58240
    3270      444        3     0.00000   18.51010   47.23357   50.71830
    3271      444        3     0.00000   17.77746   34.79020   36.52493
    3272      444        3     0.00000   18.49170   34.09698   37.62929
    3273      444        3     0.00000    4.65322   34.75260   49.68387
    3274      444        3     0.00000    5.34775   34.05387   50.79558
    3275      444        3     0.00000   17.82661   30.94007   29.20638
    3276      444        3     0.00000   18.50694   31.60726   28.06891
    3277      444        3     0.00000   17.82767   44.06798   42.30091
    3278      444        3     0.00000   18.52981   44.76829   41.19156
    3279      444        3     0.00000    4.63009   30.90327   42.30959
    3280      444        3     0.00000    5.34039   31.60410   41.20733
    3281      444        3     0.00000    8.49309   47.99776   29.17116
    3282      444        3     0.00000    7.79410   47.31139   28.05445
    3283      444        3     0.00000    8.48521   34.79913   42.35322
    3284      444        3     0.00000    7.79594   34.11302   41.23152
    3285      444        3     0.00000   23.34918   34.78257   30.96925
    3286      444        3     0.00000   24.48324   34.09304   31.64748
    3287      444        3     0.00000   10.22284   34.80807   44.07955
    3288      444        3     0.00000   11.35164   34.12905   44.76724
    3289      444        3     0.00000   23.37520   44.06220   47.95439
    3290      444        3     0.00000   24.49060   44.76225   47.25986
    3291      444        3     0.00000   23.38282   30.86252   34.76733
    3292      444        3     0.00000   24.50243   31.54732   34.06018
    3293      444        3     0.00000   10.26832   44.08533   34.75918
    3294      444        3     0.00000   11.38634   44.77907   34.06360
    3295      444        3     0.00000    2.91428   44.08612   30.88933
    3296      444        3     0.00000    1.78442   44.77907   31.56099
    3297      444        3     0.00000   16.05875   44.05063   44.00016
    3298      444        3     0.00000   14.93153   44.73964   44.68917
    3299      444        3     0.00000   16.13683   30.97898   30.97635
    3300      444        3     0.00000   15.00172   31.65510   31.64853
    3301      444        3     0.00000    2.92663   34.75760   47.95097
    3302      444        3     0.00000    1.81018   34.06807   47.25171
    3303      444        3     0.00000   16.04035   34.78389   34.79887
    3304      444        3     0.00000   14.92785   34.09015   34.10014
    3305      444        3     0.00000    4.64008   49.64785   34.79782
    3306      444        3     0.00000    5.33434   50.77850   34.11617
    3307      444        3     0.00000    4.65795   36.49339   47.95912
    3308      444        3     0.00000    5.34696   37.62061   47.27038
    3309      444        3     0.00000   21.66990   49.70201   44.09900
    3310      444        3     0.00000   20.98905   50.82687   44.79038
    3311      444        3     0.00000   21.58999   36.48261   31.02340
    3312      444        3     0.00000   20.92254   37.62061   31.70715
    3313      444        3     0.00000    8.51123   49.71042   30.91772
    3314      444        3     0.00000    7.81802   50.81083   31.63276
    3315      444        3     0.00000    4.62378   29.17641   44.04748
    3316      444        3     0.00000    5.32041   28.06023   44.74437
    3317      444        3     0.00000    4.64139   42.34770   30.91667
    3318      444        3     0.00000    5.32724   41.22048   31.61041
    3319      444        3     0.00000   21.65939   29.12252   34.82253
    3320      444        3     0.00000   20.96171   28.00634   34.13589
    3321      444        3     0.00000   21.63941   42.32983   47.94361
    3322      444        3     0.00000   20.94226   41.21601   47.24698
    3323      444        3     0.00000    8.53148   42.35454   34.75655
    3324      444        3     0.00000    7.83826   41.22942   34.06202
    3325      444        3     0.00000    4.63219   34.78836   29.15906
    3326      444        3     0.00000    5.33934   34.08594   28.05497
    3327      444        3     0.00000    4.65375   47.91890   42.34350
    3328      444        3     0.00000    5.35458   47.23515   41.22100
    3329      444        3     0.00000   21.59945   44.10715   29.21690
    3330      444        3     0.00000   20.91045   44.80378   28.09914
    3331      444        3     0.00000   21.65334   30.94796   42.33850
    3332      444        3     0.00000   20.97433   31.63749   41.21286
    3333      444        3     0.00000    8.54278   30.89354   29.19298
    3334      444        3     0.00000    7.84983   31.58307   28.07259
    3335      444        3     0.00000    4.64980   44.09769   49.65153
    3336      444        3     0.00000    5.33723   44.80194   50.76877
    3337      444        3     0.00000    4.64087   30.94217   36.54570
    3338      444        3     0.00000    5.33145   31.64879   37.65084
    3339      444        3     0.00000   21.66780   34.79282   49.66836
    3340      444        3     0.00000   20.98721   34.09935   50.79611
    3341      444        3     0.00000   21.73720   47.96569   36.53203
    3342      444        3     0.00000   21.05897   47.26906   37.65926
    3343      444        3     0.00000    8.53253   34.78520   36.52441
    3344      444        3     0.00000    7.84773   34.09409   37.65190
    3345      444        3     0.00000    8.53542   49.66652   47.91680
    3346      444        3     0.00000    7.83379   50.78113   47.22148
    3347      444        3     0.00000    8.51202   36.51521   34.78625
    3348      444        3     0.00000    7.81592   37.63665   34.09435
    3349      444        3     0.00000   17.72541   49.72330   30.83860
    3350      444        3     0.00000   18.43807   50.81398   31.56230
    3351      444        3     0.00000   17.79323   36.51652   44.05063
    3352      444        3     0.00000   18.47855   37.63533   44.75173
    3353      444        3     0.00000    4.63903   36.51389   30.89748
    3354      444        3     0.00000    5.34748   37.62955   31.59043
    3355      444        3     0.00000   17.78718   29.23583   47.94703
    3356      444        3     0.00000   18.49143   28.11123   47.26775
    3357      444        3     0.00000   17.82556   42.43551   34.75944
    3358      444        3     0.00000   18.49564   41.28068   34.10513
    3359      444        3     0.00000    4.65585   29.20586   34.82200
    3360      444        3     0.00000    5.34223   28.07863   34.13747
    3361      444        3     0.00000    8.52674   29.18693   30.95111
    3362      444        3     0.00000    7.82380   28.08336   31.65641
    3363      444        3     0.00000    8.48389   42.34586   44.10742
    3364      444        3     0.00000    7.80172   41.22284   44.79879
    3365      444        3     0.00000   23.38230   30.93481   44.07245
    3366      444        3     0.00000   24.50505   31.62014   44.76435
    3367      444        3     0.00000   10.30012   30.87304   30.89669
    3368      444        3     0.00000   11.41105   31.57571   31.58623
    3369      444        3     0.00000   23.41016   47.94519   34.74551
    3370      444        3     0.00000   24.51320   47.25460   34.04046
    3371      444        3     0.00000   10.28120   47.94440   47.91758
    3372      444        3     0.00000   11.39528   47.24856   47.21675
    3373      444        3     0.00000   10.24781   34.78336   34.77390
    3374      444        3     0.00000   11.36847   34.09409   34.07622
    3375      444        3     0.00000    2.92216   30.93744   34.80728
    3376      444        3     0.00000    1.80151   31.62697   34.11249
    3377      444        3     0.00000   16.04245   30.96110   47.93625
    3378      444        3     0.00000   14.92522   31.65195   47.24251
    3379      444        3     0.00000    2.91664   47.91627   44.07797
    3380      444        3     0.00000    1.79231   47.22963   44.77197
    3381      444        3     0.00000    2.90192   34.77626   30.89275
    3382      444        3     0.00000    1.78626   34.06728   31.58491
    3383      444        3     0.00000   15.98304   48.00486   30.81415
    3384      444        3     0.00000   14.89420   47.29219   31.52682
    3385      444        3     0.00000   17.69412   48.02615   29.06758
    3386      444        3     0.00000   18.40836   47.30665   27.98032
    3387      444        3     0.00000   17.79770   34.79756   42.30564
    3388      444        3     0.00000   18.49485   34.10592   41.19025
    3389      444        3     0.00000    8.48232   44.05326   42.35375
    3390      444        3     0.00000    7.79647   44.72597   41.22100
    3391      444        3     0.00000    8.55513   47.93546   49.65285
    3392      444        3     0.00000    7.86797   47.23462   50.76956
    3393      444        3     0.00000   17.77930   30.98713   49.65679
    3394      444        3     0.00000   18.47435   31.68165   50.76903
    3395      444        3     0.00000   17.83608   44.20048   36.45632
    3396      444        3     0.00000   18.51141   44.87529   37.59354
    3397      444        3     0.00000    2.90061   44.06273   47.93835
    3398      444        3     0.00000    1.77838   44.75147   47.25119
    3399      444        3     0.00000   16.12132   44.19180   34.71159
    3400      444        3     0.00000   14.99041   44.86162   34.02259
    3401      444        3     0.00000   16.06112   34.78152   44.03197
    3402      444        3     0.00000   14.93757   34.08437   44.71677
    3403      444        3     0.00000   23.39387   34.79414   47.93231
    3404      444        3     0.00000   24.51820   34.10540   47.24014
    3405      444        3     0.00000   23.35023   44.05957   30.92850
    3406      444        3     0.00000   24.48508   44.73070   31.61882
    3407      444        3     0.00000   10.21522   44.07429   44.08244
    3408      444        3     0.00000   11.34743   44.76225   44.75016
    3409      444        3     0.00000   21.63915   29.21637   44.06299
    3410      444        3     0.00000   20.93305   28.10755   44.74779
    3411      444        3     0.00000   21.59761   42.34534   30.91536
    3412      444        3     0.00000   20.90282   41.21759   31.59254
    3413      444        3     0.00000    4.64034   42.34061   47.94151
    3414      444        3     0.00000    5.32461   41.20970   47.26144
    3415      444        3     0.00000   21.66964   49.65784   34.75918
    3416      444        3     0.00000   20.96407   50.75747   34.05703
    3417      444        3     0.00000   21.65098   36.51941   47.92810
    3418      444        3     0.00000   20.95698   37.64007   47.23620
    3419      444        3     0.00000    4.63508   49.65995   44.06457
    3420      444        3     0.00000    5.32908   50.77692   44.75462
    3421      444        3     0.00000   21.62837   44.06273   49.66967
    3422      444        3     0.00000   20.93463   44.75094   50.78691
    3423      444        3     0.00000   21.65939   30.89144   36.51573
    3424      444        3     0.00000   20.97380   31.60042   37.63008
    3425      444        3     0.00000    4.64271   47.90155   36.51941
    3426      444        3     0.00000    5.33197   47.20755   37.63849
    3427      444        3     0.00000   21.59236   34.77942   29.26054
    3428      444        3     0.00000   20.92780   34.11591   28.10466
    3429      444        3     0.00000   21.65361   47.97936   42.35717
    3430      444        3     0.00000   20.95593   47.30113   41.23047
    3431      444        3     0.00000    4.66952   44.07929   29.18062
    3432      444        3     0.00000    5.37772   44.76435   28.06338
    3433      444        3     0.00000   17.85527   29.24003   30.96399
    3434      444        3     0.00000   18.54112   28.11097   31.63644
    3435      444        3     0.00000   17.80427   42.33062   44.02908
    3436      444        3     0.00000   18.48749   41.21286   44.73465
    3437      444        3     0.00000    8.50361   29.19087   47.90365
    3438      444        3     0.00000    7.81382   28.06812   47.21754
    3439      444        3     0.00000    8.49020   36.53440   44.07508
    3440      444        3     0.00000    7.79804   37.64795   44.76777
    3441      444        3     0.00000   17.78114   49.67940   47.87789
    3442      444        3     0.00000   18.44911   50.81477   47.19204
    3443      444        3     0.00000   17.73592   36.54991   34.81964
    3444      444        3     0.00000   18.41441   37.67897   34.12590
    3445      444        3     0.00000    2.91638   47.89813   34.78257
    3446      444        3     0.00000    1.79704   47.20255   34.08752
    3447      444        3     0.00000   16.08399   47.92126   47.85922
    3448      444        3     0.00000   14.96886   47.22805   47.16444
    3449      444        3     0.00000    2.89482   30.91247   44.03565
    3450      444        3     0.00000    1.78784   31.61882   44.73202
    3451      444        3     0.00000   23.38020   47.95202   44.09716
    3452      444        3     0.00000   24.49822   47.25460   44.78538
    3453      444        3     0.00000   10.24623   47.98409   30.88197
    3454      444        3     0.00000   11.36347   47.28536   31.57019
    3455      444        3     0.00000   10.22757   30.92745   47.88893
    3456      444        3     0.00000   11.34901   31.61409   47.19624
    3457      444        3     0.00000    9.64740   31.49553   49.03876
    3458      444        4     0.00000   10.06012   32.40904   49.44885
    3459      444        3     0.00000    9.70208   44.63817   35.92373
    3460      444        4     0.00000   10.12584   45.54116   36.34591
    3461      444        3     0.00000   16.68256   47.34635   48.99697
    3462      444        4     0.00000   16.28614   46.42233   49.39864
    3463      444        3     0.00000   16.63078   34.21633   35.94371
    3464      444        4     0.00000   16.22463   33.29836   36.35380
    3465      444        3     0.00000    3.49471   47.33557   35.93503
    3466      444        4     0.00000    3.07726   46.42732   36.35249
    3467      444        3     0.00000   16.69545   31.52392   29.80732
    3468      444        4     0.00000   16.27142   32.42796   29.38882
    3469      444        3     0.00000   16.65522   44.61661   42.85690
    3470      444        4     0.00000   16.23514   45.51934   42.43051
    3471      444        3     0.00000    3.50786   44.64343   29.74213
    3472      444        4     0.00000    3.09277   45.54931   29.31600
    3473      444        3     0.00000    9.65870   47.43546   29.72793
    3474      444        4     0.00000   10.08351   46.54062   29.28972
    3475      444        3     0.00000    9.64082   34.24025   42.93051
    3476      444        4     0.00000   10.06275   33.33516   42.51069
    3477      444        3     0.00000   22.77479   35.93162   31.54285
    3478      444        4     0.00000   23.22589   36.37115   32.42323
    3479      444        3     0.00000   22.80738   49.10369   44.66603
    3480      444        4     0.00000   23.21879   49.50774   45.58243
    3481      444        3     0.00000    9.64845   35.96474   44.63265
    3482      444        4     0.00000   10.07510   36.39323   45.53091
    3483      444        3     0.00000   22.80580   42.90054   47.39735
    3484      444        4     0.00000   23.23219   42.48019   46.49515
    3485      444        3     0.00000   22.81054   29.69008   34.24393
    3486      444        4     0.00000   23.22773   29.24713   33.34857
    3487      444        3     0.00000    9.65896   29.76369   47.34214
    3488      444        4     0.00000   10.08614   29.33388   46.44467
    3489      444        3     0.00000    3.48341   42.93208   31.46399
    3490      444        4     0.00000    3.05255   42.51779   32.36882
    3491      444        3     0.00000    3.47053   29.75974   44.60399
    3492      444        4     0.00000    3.05203   29.34860   45.51461
    3493      444        3     0.00000    3.50339   35.91689   47.39814
    3494      444        4     0.00000    3.08068   36.34250   46.49699
    3495      444        3     0.00000    3.48604   49.06715   34.23473
    3496      444        4     0.00000    3.05781   49.50064   33.33989
    3497      444        3     0.00000    5.19265   49.07031   35.95685
    3498      444        4     0.00000    6.08433   49.50327   36.39323
    3499      444        3     0.00000   18.36736   49.08740   49.01616
    3500      444        4     0.00000   19.27560   49.50853   49.43098
    3501      444        3     0.00000   18.30584   35.97052   35.96947
    3502      444        4     0.00000   19.19858   36.40532   36.40086
    3503      444        3     0.00000   21.11155   49.14155   42.93445
    3504      444        4     0.00000   20.22223   49.58371   42.50307
    3505      444        3     0.00000   20.99168   35.88009   29.89933
    3506      444        4     0.00000   20.03506   36.24917   29.54471
    3507      444        3     0.00000    7.93816   49.14523   29.76474
    3508      444        4     0.00000    7.02781   49.56978   29.35912
    3509      444        3     0.00000    5.18397   29.74791   42.89002
    3510      444        4     0.00000    6.08880   29.32547   42.47231
    3511      444        3     0.00000   18.38155   29.78524   29.77998
    3512      444        4     0.00000   19.25457   29.33572   29.32783
    3513      444        3     0.00000   21.10340   29.71847   35.97079
    3514      444        4     0.00000   20.20251   29.30339   36.40795
    3515      444        3     0.00000    7.94289   29.77341   49.05506
    3516      444        4     0.00000    7.04148   29.35175   49.48040
    3517      444        3     0.00000    5.18660   35.94713   29.73240
    3518      444        4     0.00000    6.08302   36.37667   29.30339
    3519      444        3     0.00000   18.35395   35.95159   42.88976
    3520      444        4     0.00000   19.25378   36.38351   42.46758
    3521      444        3     0.00000   21.03269   42.94970   29.78077
    3522      444        4     0.00000   20.11760   42.54565   29.36569
    3523      444        3     0.00000    7.92212   42.91026   42.94812
    3524      444        4     0.00000    7.01703   42.48729   42.53409
    3525      444        3     0.00000    7.95630   29.77131   29.80575
    3526      444        4     0.00000    7.02518   29.37936   29.41774
    3527      444        3     0.00000    5.21473   42.94286   49.07741
    3528      444        4     0.00000    6.13034   42.53645   49.48934
    3529      444        3     0.00000    5.20238   29.77998   35.98393
    3530      444        4     0.00000    6.09643   29.35070   36.42294
    3531      444        3     0.00000   18.37813   43.02225   35.91059
    3532      444        4     0.00000   19.25641   42.57772   36.36090
    3533      444        3     0.00000   21.09867   35.94529   49.08818
    3534      444        4     0.00000   20.19542   36.37194   49.51089
    3535      444        3     0.00000    7.96760   35.94187   35.95159
    3536      444        4     0.00000    7.07460   36.37089   36.38929
    3537      444        3     0.00000    9.69340   49.09449   47.35713
    3538      444        4     0.00000   10.10743   49.51379   46.45046
    3539      444        3     0.00000    9.66527   35.93871   34.21975
    3540      444        4     0.00000   10.08535   36.36510   33.31728
    3541      444        3     0.00000   16.57400   49.14260   31.39354
    3542      444        4     0.00000   16.16995   49.54402   32.31440
    3543      444        3     0.00000   16.63682   35.93372   44.60163
    3544      444        4     0.00000   16.21149   36.35196   45.50541
    3545      444        3     0.00000    3.48262   35.93135   31.45873
    3546      444        4     0.00000    3.06491   36.34591   32.36855
    3547      444        3     0.00000   16.62526   29.80154   47.38447
    3548      444        4     0.00000   16.20307   29.36937   46.48542
    3549      444        3     0.00000   16.68283   43.01647   34.18084
    3550      444        4     0.00000   16.25433   42.57562   33.28968
    3551      444        3     0.00000    3.51206   29.78945   34.24919
    3552      444        4     0.00000    3.10776   29.37620   33.33700
    3553      444        3     0.00000    9.70786   29.73766   31.48107
    3554      444        4     0.00000   10.12873   29.32284   32.39011
    3555      444        3     0.00000    9.63898   42.92788   44.65920
    3556      444        4     0.00000   10.06353   42.51595   45.56692
    3557      444        3     0.00000   22.80686   31.50210   42.92078
    3558      444        4     0.00000   23.22930   32.40720   42.50412
    3559      444        3     0.00000   22.77347   44.63869   29.78182
    3560      444        4     0.00000   23.21406   45.53353   29.35754
    3561      444        3     0.00000    9.72573   31.42482   29.73714
    3562      444        4     0.00000   10.16106   32.31335   29.29786
    3563      444        3     0.00000   22.88519   47.41338   35.93845
    3564      444        4     0.00000   23.34155   46.53353   36.37588
    3565      444        3     0.00000   22.82237   34.23762   49.09108
    3566      444        4     0.00000   23.24481   33.33805   49.51904
    3567      444        3     0.00000    9.68394   34.22711   35.93793
    3568      444        4     0.00000   10.11611   33.32964   36.36353
    3569      444        3     0.00000    3.48341   31.49212   35.96973
    3570      444        4     0.00000    3.05019   32.38827   36.39507
    3571      444        3     0.00000    3.48367   44.63738   49.08240
    3572      444        4     0.00000    3.05728   45.54037   49.50038
    3573      444        3     0.00000    3.50549   47.34871   42.92998
    3574      444        4     0.00000    3.09146   46.43731   42.51595
    3575      444        3     0.00000    3.47289   34.23053   29.72899
    3576      444        4     0.00000    3.04545   33.33358   29.29760
    3577      444        3     0.00000   16.52668   47.47700   29.62857
    3578      444        4     0.00000   16.08872   46.58742   29.18824
    3579      444        3     0.00000   16.63840   34.23552   42.87188
    3580      444        4     0.00000   16.21438   33.33963   42.43656
    3581      444        3     0.00000    9.63820   44.61950   42.92183
    3582      444        4     0.00000   10.06432   45.51513   42.48677
    3583      444        3     0.00000    9.71706   47.38946   49.08056
    3584      444        4     0.00000   10.15370   46.49883   49.51326
    3585      444        3     0.00000   16.61500   31.53102   49.08634
    3586      444        4     0.00000   16.17889   32.42902   49.50669
    3587      444        3     0.00000   16.70596   44.77671   35.85039
    3588      444        4     0.00000   16.30612   45.70546   36.23918
    3589      444        3     0.00000    3.47316   42.90054   47.38920
    3590      444        4     0.00000    3.03888   42.45969   46.49961
    3591      444        3     0.00000    3.47841   49.08556   44.62266
    3592      444        4     0.00000    3.04361   49.52141   45.51408
    3593      444        3     0.00000   22.80975   35.94529   47.37027
    3594      444        4     0.00000   23.23377   36.36826   46.46781
    3595      444        3     0.00000   22.80239   49.07136   34.17085
    3596      444        4     0.00000   23.17568   49.45464   33.22869
    3597      444        3     0.00000   22.76112   42.90580   31.47818
    3598      444        4     0.00000   23.18093   42.47283   32.37802
    3599      444        3     0.00000   22.80265   29.77736   44.62345
    3600      444        4     0.00000   23.22930   29.34071   45.51934
    3601      444        3     0.00000   21.08736   29.79523   42.90895
    3602      444        4     0.00000   20.18332   29.37489   42.48519
    3603      444        3     0.00000   18.34080   29.82757   49.09397
    3604      444        4     0.00000   19.24169   29.41301   49.52535
    3605      444        3     0.00000   21.15124   49.10475   35.94634
    3606      444        4     0.00000   20.24720   49.51694   36.37693
    3607      444        3     0.00000    7.98495   49.08845   49.07662
    3608      444        4     0.00000    7.07959   49.50642   49.50117
    3609      444        3     0.00000    5.19712   49.08424   42.91105
    3610      444        4     0.00000    6.09380   49.51457   42.48388
    3611      444        3     0.00000   18.26956   49.16521   29.66484
    3612      444        4     0.00000   19.18754   49.57030   29.25817
    3613      444        3     0.00000   21.06949   42.91132   49.08845
    3614      444        4     0.00000   20.15467   42.49807   49.49512
    3615      444        3     0.00000    7.99231   42.91736   35.93135
    3616      444        4     0.00000    7.10851   42.47651   36.37273
    3617      444        3     0.00000    5.21368   35.91243   49.11395
    3618      444        4     0.00000    6.11562   36.33356   49.54112
    3619      444        3     0.00000    7.92896   35.95659   42.92341
    3620      444        4     0.00000    7.02492   36.37746   42.49991
    3621      444        3     0.00000    5.21105   42.91973   29.76237
    3622      444        4     0.00000    6.11115   42.49097   29.34282
    3623      444        3     0.00000   18.38497   42.91500   42.88661
    3624      444        4     0.00000   19.30163   42.50149   42.48335
    3625      444        3     0.00000   16.71910   29.83177   31.54338
    3626      444        4     0.00000   16.30586   29.41616   32.45662
    3627      444        3     0.00000   16.63104   42.89476   44.56246
    3628      444        4     0.00000   16.19124   42.46311   45.45152
    3629      444        3     0.00000    9.67684   42.94234   34.18847
    3630      444        4     0.00000   10.07641   42.54092   33.26681
    3631      444        3     0.00000    9.68104   49.13971   31.45058
    3632      444        4     0.00000   10.12452   49.56478   32.34227
    3633      444        3     0.00000   16.62867   49.09949   47.32243
    3634      444        4     0.00000   16.19282   49.53008   46.42943
    3635      444        3     0.00000   16.59345   35.95738   34.25576
    3636      444        4     0.00000   16.16522   36.38061   33.35593
    3637      444        3     0.00000    3.49576   34.19793   49.10869
    3638      444        4     0.00000    3.06885   33.29678   49.53245
    3639      444        3     0.00000    3.46448   31.45715   42.87057
    3640      444        4     0.00000    3.03362   32.35094   42.43472
    3641      444        3     0.00000   22.80607   47.40865   42.93182
    3642      444        4     0.00000   23.23009   46.51328   42.49544
    3643      444        3     0.00000   22.77452   34.24341   29.80259
    3644      444        4     0.00000   23.21984   33.37249   29.33993
    3645      444        3     0.00000   22.80580   31.44506   35.91321
    3646      444        4     0.00000   23.22194   32.36225   36.30858
    3647      444        3     0.00000   22.78819   44.62266   49.10317
    3648      444        4     0.00000   23.20117   45.52985   49.52746
    3649      385        5     0.00000   17.83082   38.18791   39.78095
    3650      385        6     0.00000   17.61368   37.80699   40.66870
    3651      385        6     0.00000   17.26878   37.67556   39.14689
    3652      386        5     0.00000   14.85687   51.18806   49.99065
    3653      386        6     0.00000   14.47201   50.27666   49.95095
    3654      386        6     0.00000   15.41654   51.25641   49.17677
    3655      387        5     0.00000   18.91441   41.41659   39.35088
    3656      387        6     0.00000   19.50063   41.19261   38.58512
    3657      387        6     0.00000   19.52981   41.47836   40.12375
    3658      388        5     0.00000   17.05243   38.11193   29.60964
    3659      388        6     0.00000   17.21384   38.00731   28.63830
    3660      388        6     0.00000   16.32216   38.77781   29.67036
    3661      389        5     0.00000   13.76040   38.04595   31.10673
    3662      389        6     0.00000   13.33690   38.36088   30.26920
    3663      389        6     0.00000   13.00936   37.95342   31.74501
    3664      390        5     0.00000    1.07333   41.89976   35.28704
    3665      390        6     0.00000    0.87355   41.35297   34.48710
    3666      390        6     0.00000    2.06018   41.87505   35.36432
    3667      391        5     0.00000   25.68328   51.04611   40.13637
    3668      391        6     0.00000   25.83549   51.83185   40.71943
    3669      391        6     0.00000   25.95667   51.34947   39.23416
    3670      392        5     0.00000   24.04922   39.64557   29.35517
    3671      392        6     0.00000   24.53581   39.24652   28.59125
    3672      392        6     0.00000   24.34733   39.12402   30.14223
    3673      393        5     0.00000   12.76514   42.04566   40.92264
    3674      393        6     0.00000   12.36162   41.34982   41.50044
    3675      393        6     0.00000   12.07587   42.75464   40.87006
    3676      394        5     0.00000    2.57963   38.05594   27.47322
    3677      394        6     0.00000    1.98263   37.36615   27.08916
    3678      394        6     0.00000    2.34698   38.08065   28.43510
    3679      395        5     0.00000   13.13028   41.37926   26.60572
    3680      395        6     0.00000   13.63317   42.07194   26.10835
    3681      395        6     0.00000   13.82875   40.82038   27.03001
    3682      396        5     0.00000   13.03170   28.57784   48.42783
    3683      396        6     0.00000   12.33586   29.07994   48.92152
    3684      396        6     0.00000   13.26855   29.16380   47.66759
    3685      397        5     0.00000   23.43882   27.43642   48.66022
    3686      397        6     0.00000   22.59866   27.58626   49.16232
    3687      397        6     0.00000   23.18409   26.81944   47.92889
    3688      398        5     0.00000   21.26402   45.97780   45.94363
    3689      398        6     0.00000   21.40755   45.07797   45.55614
    3690      398        6     0.00000   20.88705   45.80456   46.84267
    3691      399        5     0.00000   11.86872   51.60919   30.31126
    3692      399        6     0.00000   12.55037   51.40941   29.62121
    3693      399        6     0.00000   12.17656   51.11656   31.11331
    3694      400        5     0.00000    6.20789   39.16739   37.43082
    3695      400        6     0.00000    5.48050   38.74206   36.91242
    3696      400        6     0.00000    5.88560   39.14847   38.36640
    3697      401        5     0.00000    8.81118   49.90653   40.62190
    3698      401        6     0.00000    8.26623   50.45042   41.24387
    3699      401        6     0.00000    9.73047   50.26062   40.72232
    3700      402        5     0.00000    5.38928   33.81807   44.27356
    3701      402        6     0.00000    5.68949   34.54125   44.87923
    3702      402        6     0.00000    5.30989   34.25156   43.38739
    3703      403        5     0.00000   20.57633   33.69084   45.23937
    3704      403        6     0.00000   19.85499   33.41665   44.61845
    3705      403        6     0.00000   20.42859   33.14221   46.05062
    3706      404        5     0.00000    6.96603   33.67979   31.59070
    3707      404        6     0.00000    7.10930   33.30703   30.68665
    3708      404        6     0.00000    7.52964   34.49288   31.61830
    3709      405        5     0.00000   16.08162   38.02755   48.85633
    3710      405        6     0.00000   15.62921   38.82118   49.23829
    3711      405        6     0.00000   16.37710   38.32013   47.95859
    3712      406        5     0.00000    8.00624   27.61150   51.59947
    3713      406        6     0.00000    8.14872   27.14646   50.73696
    3714      406        6     0.00000    7.02229   27.68247   51.68385
    3715      407        5     0.00000    0.08307   29.87383   41.33457
    3716      407        6     0.00000    0.42271   30.67745   40.86664
    3717      407        6     0.00000    0.89642   29.41879   41.66842
    3718      408        5     0.00000   14.47464   29.45270   36.27204
    3719      408        6     0.00000   13.95914   28.62831   36.08566
    3720      408        6     0.00000   15.31664   29.33993   35.76311
    3721      409        5     0.00000    9.71680   41.02963   51.87654
    3722      409        6     0.00000   10.09771   40.96680   50.96567
    3723      409        6     0.00000   10.36059   40.54120   52.44804
    3724      410        5     0.00000   24.67619   36.64139   26.58416
    3725      410        6     0.00000   23.90885   36.80963   25.98165
    3726      410        6     0.00000   24.28923   36.13850   27.34441
    3727      411        5     0.00000   24.49638   42.00780   26.64095
    3728      411        6     0.00000   24.49270   41.12348   26.19616
    3729      411        6     0.00000   25.24296   42.49702   26.21245
    3730      412        5     0.00000   24.03950   34.64640   38.02045
    3731      412        6     0.00000   23.84838   34.32043   38.93291
    3732      412        6     0.00000   23.17278   34.99156   37.69317
    3733      413        5     0.00000   13.46046   49.56110   41.74019
    3734      413        6     0.00000   13.90972   50.23145   41.16580
    3735      413        6     0.00000   12.49359   49.70858   41.58457
    3736      414        5     0.00000    0.49658   42.58245   43.68129
    3737      414        6     0.00000    0.82281   41.82641   44.23044
    3738      414        6     0.00000   -0.44374   42.70995   43.96336
    3739      415        5     0.00000    3.70423   52.31555   36.55385
    3740      415        6     0.00000    3.56937   53.27217   36.33960
    3741      415        6     0.00000    3.99471   52.31187   37.49995
    3742      416        5     0.00000    2.63352   26.37255   42.00596
    3743      416        6     0.00000    3.60065   26.32786   42.21416
    3744      416        6     0.00000    2.18531   26.18222   42.86794
    3745      417        5     0.00000   14.45677   52.33658   43.90815
    3746      417        6     0.00000   15.22516   51.71224   43.92340
    3747      417        6     0.00000   13.76908   51.89784   44.46966
    3748      418        5     0.00000    8.57879   27.78578   40.87085
    3749      418        6     0.00000    9.50912   27.99320   41.13636
    3750      418        6     0.00000    8.37532   26.93169   41.32747
    3751      419        5     0.00000   21.34315   37.91530   41.19603
    3752      419        6     0.00000   22.23431   37.71709   41.57931
    3753      419        6     0.00000   21.36207   38.88822   41.01228
    3754      420        5     0.00000   10.83403   38.62376   39.20078
    3755      420        6     0.00000   10.63319   39.47391   39.66713
    3756      420        6     0.00000   11.39423   38.11561   39.83984
    3757      421        5     0.00000    4.30438   41.30039   51.82896
    3758      421        6     0.00000    4.65191   40.75913   51.07660
    3759      421        6     0.00000    5.07278   41.85743   52.11024
    3760      422        5     0.00000    0.21793   28.00003   35.54466
    3761      422        6     0.00000   -0.13512   28.22138   34.64614
    3762      422        6     0.00000    1.18348   27.83652   35.39902
    3763      423        5     0.00000   15.28405   42.55932   48.38419
    3764      423        6     0.00000   15.12948   42.86794   49.31163
    3765      423        6     0.00000   16.21464   42.83009   48.18362
    3766      424        5     0.00000   14.93468   34.71159   51.12760
    3767      424        6     0.00000   14.85266   34.69083   50.14128
    3768      424        6     0.00000   15.40734   33.87275   51.35604
    3769      425        5     0.00000   25.63806   49.45937   51.95015
    3770      425        6     0.00000   25.03502   49.74512   51.21908
    3771      425        6     0.00000   25.53501   50.15705   52.64441
    3772      426        5     0.00000    3.20160   50.79979   30.38014
    3773      426        6     0.00000    3.47158   51.39179   29.63461
    3774      426        6     0.00000    2.29309   51.10604   30.62698
    3775      427        5     0.00000    9.26570   37.76020   52.53505
    3776      427        6     0.00000    9.25781   37.68502   51.54821
    3777      427        6     0.00000   10.03304   37.20369   52.82080
    3778      428        5     0.00000   11.54249   38.70946   49.55322
    3779      428        6     0.00000   12.00253   39.24941   50.24406
    3780      428        6     0.00000   11.82272   39.11482   48.69439
    3781      429        5     0.00000    4.55543   42.32299   37.71052
    3782      429        6     0.00000    4.64665   42.26174   36.72683
    3783      429        6     0.00000    5.23261   41.69366   38.06172
    3784      430        5     0.00000    9.60691   49.14707   36.75048
    3785      430        6     0.00000   10.48099   49.53350   37.00968
    3786      430        6     0.00000    9.01912   49.31899   37.52834
    3787      431        5     0.00000    0.78338   48.20254   41.23099
    3788      431        6     0.00000    1.64799   48.25828   40.75203
    3789      431        6     0.00000    0.87250   48.84555   41.97862
    3790      432        5     0.00000    0.21845   41.86427   49.01773
    3791      432        6     0.00000    0.03523   41.01780   49.49775
    3792      432        6     0.00000    0.12434   41.63215   48.05954
    3793      433        5     0.00000    9.85560   48.83083   43.61294
    3794      433        6     0.00000    8.90108   49.06032   43.74201
    3795      433        6     0.00000    9.96127   47.95439   44.05957
    3796      434        5     0.00000   10.68472   43.53933   50.21699
    3797      434        6     0.00000    9.78304   43.94706   50.20857
    3798      434        6     0.00000   11.21074   44.08034   49.57688
    3799      435        5     0.00000   20.33711   46.51381   33.83253
    3800      435        6     0.00000   20.03007   46.46229   34.76733
    3801      435        6     0.00000   19.97434   47.36817   33.50104
    3802      436        5     0.00000   11.73676   49.99249   50.79953
    3803      436        6     0.00000   10.76121   49.94885   50.96120
    3804      436        6     0.00000   12.13029   50.15758   51.69253
    3805      437        5     0.00000   16.56585   39.64820   36.44160
    3806      437        6     0.00000   16.01301   38.99074   36.93397
    3807      437        6     0.00000   16.20334   40.52937   36.71026
    3808      438        5     0.00000   22.29503   39.69420   51.45147
    3809      438        6     0.00000   22.28031   39.71891   50.46173
    3810      438        6     0.00000   21.35103   39.82959   51.71776
    3811      439        5     0.00000    5.89086   26.82023   28.27711
    3812      439        6     0.00000    5.30963   26.58364   27.51160
    3813      439        6     0.00000    5.27467   26.86203   29.05076
    3814      440        5     0.00000    1.74972   28.66485   38.74022
    3815      440        6     0.00000    2.30703   27.84809   38.76782
    3816      440        6     0.00000    2.32175   29.37094   39.13427
    3817      441        5     0.00000   25.29816   39.79068   45.10872
    3818      441        6     0.00000   24.52871   40.39583   45.25751
    3819      441        6     0.00000   25.44642   39.81329   44.12976
    3820      442        5     0.00000   14.95151   39.25756   42.12610
    3821      442        6     0.00000   15.92048   39.15188   42.29986
    3822      442        6     0.00000   14.89341   40.02280   41.50018
    3823      443        5     0.00000   12.68970   38.14322   27.35361
    3824      443        6     0.00000   12.63949   38.20841   26.36703
    3825      443        6     0.00000   12.93522   37.20001   27.52843
    3826      444        5     0.00000    9.13636   30.29128   35.75917
    3827      444        6     0.00000    8.35061   30.01368   35.22447
    3828      444        6     0.00000    9.90660   29.86200   35.30886
    3829      445        5     0.00000   24.02688   39.95051   36.12720
    3830      445        6     0.00000   23.96458   40.32038   37.04333
    3831      445        6     0.00000   24.96404   40.11796   35.85538
    3832      446        5     0.00000    3.88640   29.44324   50.33002
    3833      446        6     0.00000    4.65217   28.95849   49.93308
    3834      446        6     0.00000    3.11222   28.84545   50.18045
    3835      447        5     0.00000   17.24749   29.79129   38.30883
    3836      447        6     0.00000   16.74618   28.98609   38.02597
    3837      447        6     0.00000   16.54850   30.44927   38.55094
    3838      448        5     0.00000    0.17140   36.28440   29.30339
    3839      448        6     0.00000   -0.51314   35.83987   29.86069
    3840      448        6     0.00000    0.01052   37.25127   29.44140
    3841      449        5     0.00000   21.26980   27.79867   27.94535
    3842      449        6     0.00000   20.58106   27.49925   27.29972
    3843      449        6     0.00000   22.08815   27.30787   27.68116
    3844      450        5     0.00000    3.87747   37.46026   40.39819
    3845      450        6     0.00000    4.15086   37.48628   39.44710
    3846      450        6     0.00000    4.72499   37.34564   40.89687
    3847      451        5     0.00000   12.86346   38.48759   36.25732
    3848      451        6     0.00000   12.00227   38.97155   36.18424
    3849      451        6     0.00000   12.78538   37.96683   37.09591
    3850      452        5     0.00000   12.27960   28.84939   41.88083
    3851      452        6     0.00000   11.56668   28.87936   42.56747
    3852      452        6     0.00000   12.47466   29.79996   41.68420
    3853      453        5     0.00000    0.96503   31.01525   51.95856
    3854      453        6     0.00000    1.60277   31.69322   52.29636
    3855      453        6     0.00000    1.05178   30.25606   52.58842
    3856      454        5     0.00000   23.60811   43.40106   36.64665
    3857      454        6     0.00000   23.19513   43.10401   35.79702
    3858      454        6     0.00000   24.54554   43.08666   36.59039
    3859      455        5     0.00000   14.89262   41.67158   30.03918
    3860      455        6     0.00000   14.74541   40.74546   30.35595
    3861      455        6     0.00000   14.69415   42.23756   30.82703
    3862      456        5     0.00000    2.97158   38.39006   35.01391
    3863      456        6     0.00000    3.03573   38.84826   35.88903
    3864      456        6     0.00000    2.97185   39.12428   34.34935
    3865      457        5     0.00000    0.50920   36.46842   43.64580
    3866      457        6     0.00000    0.96976   37.15979   44.18497
    3867      457        6     0.00000   -0.37539   36.36484   44.07850
    3868      458        5     0.00000   25.08681   51.39600   46.47359
    3869      458        6     0.00000   25.98375   51.62812   46.82269
    3870      458        6     0.00000   25.20510   51.35341   45.49121
    3871      459        5     0.00000   22.14519   43.11636   42.00570
    3872      459        6     0.00000   22.07789   42.95233   41.03147
    3873      459        6     0.00000   22.64597   43.96678   42.08114
    3874      460        5     0.00000   12.75305   32.26708   52.14179
    3875      460        6     0.00000   13.45152   32.65036   52.72643
    3876      460        6     0.00000   13.14500   32.29048   51.23459
    3877      461        5     0.00000   13.80825   46.23437   51.03323
    3878      461        6     0.00000   13.18180   46.56349   50.34133
    3879      461        6     0.00000   13.67207   46.84372   51.80083
    3880      462        5     0.00000    8.46339   52.31870   37.83171
    3881      462        6     0.00000    8.68526   51.88706   38.69447
    3882      462        6     0.00000    7.71471   51.78112   37.46972
    3883      463        5     0.00000   22.97799   48.91994   27.22980
    3884      463        6     0.00000   22.01428   48.70517   27.17275
    3885      463        6     0.00000   23.04529   49.55821   27.98347
    3886      464        5     0.00000   11.04644   27.05419   50.57950
    3887      464        6     0.00000   11.99727   26.89673   50.80294
    3888      464        6     0.00000   10.92788   26.64252   49.68676
    3889      465        5     0.00000   25.22666   50.52219   36.10748
    3890      465        6     0.00000   24.96904   51.47302   36.20554
    3891      465        6     0.00000   24.72167   50.05137   36.81699
    3892      466        5     0.00000   12.33770   45.39421   38.47865
    3893      466        6     0.00000   12.65184   45.30168   37.54412
    3894      466        6     0.00000   12.34664   44.47150   38.83722
    3895      467        5     0.00000    2.47106   49.91336   38.32197
    3896      467        6     0.00000    2.79572   49.01432   38.57960
    3897      467        6     0.00000    1.54205   49.76457   38.01414
    3898      468        5     0.00000   22.26585   26.52975   41.57063
    3899      468        6     0.00000   23.24718   26.44168   41.47573
    3900      468        6     0.00000   21.90019   25.73007   41.11638
    3901      469        5     0.00000   15.88210   35.17426   28.08783
    3902      469        6     0.00000   15.46254   34.34619   27.74583
    3903      469        6     0.00000   15.94729   35.03520   29.06601
    3904      470        5     0.00000    6.93790   39.97364   40.78568
    3905      470        6     0.00000    7.75256   40.39162   41.16212
    3906      470        6     0.00000    6.20657   40.60219   41.01018
    3907      471        5     0.00000   12.55799   35.38246   41.17211
    3908      471        6     0.00000   12.52776   35.34881   42.16080
    3909      471        6     0.00000   11.61951   35.54019   40.89845
    3910      472        5     0.00000    2.14720   39.27596   50.77613
    3911      472        6     0.00000    1.53337   38.75914   50.19622
    3912      472        6     0.00000    1.56071   39.67869   51.46435
    3913      473        5     0.00000   17.67572   38.50967   51.69410
    3914      473        6     0.00000   16.76958   38.74679   52.01166
    3915      473        6     0.00000   17.95437   37.76073   52.27691
    3916      474        5     0.00000   21.61023   48.28930   30.01579
    3917      474        6     0.00000   21.97064   47.50355   30.49738
    3918      474        6     0.00000   22.12048   49.05716   30.37698
    3919      475        5     0.00000   15.71149   51.83895   35.49760
    3920      475        6     0.00000   16.36580   51.23801   35.06017
    3921      475        6     0.00000   15.49304   52.51402   34.80702
    3922      476        5     0.00000   -0.03076   29.42063   29.67352
    3923      476        6     0.00000   -0.13906   30.26368   30.18088
    3924      476        6     0.00000   -0.53680   28.74818   30.19560
    3925      477        5     0.00000    8.16344   37.18555   39.73206
    3926      477        6     0.00000    7.87691   37.36930   38.80304
    3927      477        6     0.00000    8.84351   36.47157   39.64399
    3928      478        5     0.00000   14.46255   43.06931   37.76967
    3929      478        6     0.00000   14.34925   42.10980   37.55463
    3930      478        6     0.00000   15.34504   43.12425   38.21498
    3931      479        5     0.00000   21.42490   38.17082   27.78368
    3932      479        6     0.00000   21.04557   38.65425   28.55996
    3933      479        6     0.00000   20.66755   37.64296   27.42511
    3934      480        5     0.00000   20.01035   34.09777   33.31308
    3935      480        6     0.00000   20.03375   33.95687   34.29257
    3936      480        6     0.00000   20.07581   35.07936   33.20372
    3937      481        5     0.00000    2.38063   40.02464   39.24862
    3938      481        6     0.00000    2.30834   40.84036   38.69158
    3939      481        6     0.00000    2.66112   39.31592   38.61561
    3940      482        5     0.00000   17.41048   49.71068   42.30459
    3941      482        6     0.00000   17.70569   50.57056   41.91211
    3942      482        6     0.00000   16.42231   49.73934   42.25123
    3943      483        5     0.00000   11.77382   40.51570   32.26104
    3944      483        6     0.00000   12.31273   41.34219   32.34095
    3945      483        6     0.00000   11.04434   40.75361   31.63538
    3946      484        5     0.00000   24.10495   28.08757   38.78780
    3947      484        6     0.00000   23.13835   28.27132   38.89899
    3948      484        6     0.00000   24.14097   27.29867   38.19159
    3949      485        5     0.00000    4.36957   52.16255   50.00432
    3950      485        6     0.00000    4.53939   51.71040   49.14155
    3951      485        6     0.00000    4.91610   51.65967   50.65889
    3952      486        5     0.00000   10.79276   51.74195   34.91638
    3953      486        6     0.00000   11.57299   51.72249   35.52599
    3954      486        6     0.00000   10.22231   52.47170   35.26627
    3955      487        5     0.00000    7.88348   44.54143   47.49645
    3956      487        6     0.00000    7.09274   44.70915   46.92443
    3957      487        6     0.00000    8.00913   43.56010   47.46543
    3958      488        5     0.00000   16.17915   28.39041   40.80276
    3959      488        6     0.00000   15.94808   27.53368   40.36402
    3960      488        6     0.00000   15.41654   28.57521   41.40581
    3961      489        5     0.00000   11.66289   51.98432   46.68573
    3962      489        6     0.00000   11.58113   52.97038   46.66497
    3963      489        6     0.00000   11.22020   51.68254   45.85451
    3964      490        5     0.00000    7.27781   46.30692   32.74973
    3965      490        6     0.00000    6.83906   45.55378   32.27944
    3966      490        6     0.00000    8.22259   46.26644   32.45662
    3967      491        5     0.00000   14.43363   26.38175   27.51370
    3968      491        6     0.00000   13.99910   26.52607   26.63569
    3969      491        6     0.00000   14.90235   27.23348   27.70245
    3970      492        5     0.00000    9.94130   51.20305   27.53815
    3971      492        6     0.00000    9.75334   50.28691   27.21297
    3972      492        6     0.00000   10.91132   51.32791   27.38673
    3973      493        5     0.00000   18.97960   45.37765   31.12461
    3974      493        6     0.00000   18.27719   46.01960   31.39643
    3975      493        6     0.00000   18.91467   44.64421   31.78496
    3976      494        5     0.00000    0.76708   42.64502   40.71759
    3977      494        6     0.00000    1.04994   43.36715   40.10245
    3978      494        6     0.00000    1.60961   42.30328   41.10849
    3979      495        5     0.00000    9.83772   28.19745   27.89672
    3980      495        6     0.00000   10.46101   27.85045   27.21113
    3981      495        6     0.00000   10.19418   27.85755   28.75476
    3982      496        5     0.00000    1.87696   50.80347   51.24958
    3983      496        6     0.00000    1.41403   51.24379   50.49432
    3984      496        6     0.00000    1.64641   51.35394   52.04005
    3985      497        5     0.00000    2.32359   27.93168   31.29180
    3986      497        6     0.00000    2.13142   27.44720   30.45138
    3987      497        6     0.00000    2.09988   27.28737   32.00972
    3988      498        5     0.00000   25.45799   51.84657   31.49974
    3989      498        6     0.00000   24.69012   51.94463   30.88197
    3990      498        6     0.00000   25.18249   51.13181   32.12723
    3991      499        5     0.00000   12.59374   29.74739   27.49714
    3992      499        6     0.00000   13.52644   29.43956   27.61150
    3993      499        6     0.00000   12.23702   29.82835   28.41617
    3994      500        5     0.00000   23.96589   40.48521   40.81433
    3995      500        6     0.00000   24.35916   39.63874   41.14451
    3996      500        6     0.00000   24.28581   41.17290   41.45129
    3997      501        5     0.00000   24.92172   26.81418   26.90829
    3998      501        6     0.00000   25.76845   26.54894   26.46876
    3999      501        6     0.00000   25.18171   27.53920   27.53105
    4000      502        5     0.00000    3.13694   29.84623   28.46322
    4001      502        6     0.00000    3.58436   28.96953   28.56916
    4002      502        6     0.00000    3.46317   30.18824   27.59336
    4003      503        5     0.00000   18.07661   31.31599   34.72080
    4004      503        6     0.00000   17.91073   30.81415   35.55701
    4005      503        6     0.00000   18.98696   31.68533   34.83173
    4006      504        5     0.00000   13.75672   28.22874   30.31494
    4007      504        6     0.00000   14.01224   29.16432   30.12883
    4008      504        6     0.00000   13.39868   28.24871   31.23660
    4009      505        5     0.00000   25.50636   40.85429   31.85384
    4010      505        6     0.00000   25.94695   41.73914   31.79968
    4011      505        6     0.00000   25.61362   40.57537   32.79652
    4012      506        5     0.00000   13.44100   34.12222   37.36615
    4013      506        6     0.00000   14.22517   34.66060   37.64086
    4014      506        6     0.00000   12.81325   34.19162   38.12876
    4015      507        5     0.00000   13.39973   44.80247   27.87359
    4016      507        6     0.00000   13.81955   44.81850   28.77000
    4017      507        6     0.00000   12.70363   44.10163   27.93852
    4018      508        5     0.00000    3.70791   41.46574   43.05327
    4019      508        6     0.00000    4.58724   41.87189   42.85375
    4020      508        6     0.00000    3.52836   41.71469   43.99412
    4021      509        5     0.00000   19.26588   51.41808   52.36287
    4022      509        6     0.00000   20.20541   51.18228   52.56818
    4023      509        6     0.00000   19.05268   50.90074   51.54610
    4024      510        5     0.00000    0.21162   46.95597   28.04130
    4025      510        6     0.00000    1.00183   47.10318   27.46271
    4026      510        6     0.00000   -0.20242   47.85108   28.12937
    4027      511        5     0.00000    0.48396   33.76996   40.30803
    4028      511        6     0.00000   -0.34542   33.23080   40.34246
    4029      511        6     0.00000    0.22660   34.64693   40.68920
    4030      512        5     0.00000   25.28475   37.33171   38.56041
    4031      512        6     0.00000   24.66909   37.03807   39.27701
    4032      512        6     0.00000   24.90463   38.18791   38.24153
    4033      444        1     0.00000   34.58173    6.41951   24.94406
    4034      444        1     0.00000   34.61170   19.58238   11.81930
    4035      444        1     0.00000   47.73541    6.41083   11.80116
    4036      444        1     0.00000   47.68467   19.56240   24.95905
    4037      444        1     0.00000   44.32061   19.85578   24.90884
    4038      444        1     0.00000   44.32613    6.70893   11.81142
    4039      444        1     0.00000   31.15458   19.82029   11.81536
    4040      444        1     0.00000   31.16746    6.67187   24.98034
    4041      444        1     0.00000   44.32350    6.41267    1.30966
    4042      444        1     0.00000   44.36162   19.58764   14.45256
    4043      444        1     0.00000   31.16615    6.41582   14.45519
    4044      444        1     0.00000   31.19848   19.56766    1.29810
    4045      444        1     0.00000   34.55413   19.92859    1.30230
    4046      444        1     0.00000   34.55650    6.73391   14.47280
    4047      444        1     0.00000   47.71254   19.92334   14.46255
    4048      444        1     0.00000   47.68704    6.73680    1.33858
    4049      444        1     0.00000   51.24958    8.27070    6.45394
    4050      444        1     0.00000   51.26167   21.43226   19.59185
    4051      444        1     0.00000   38.11430    8.31355   19.57108
    4052      444        1     0.00000   38.12534   21.46985    6.37166
    4053      444        1     0.00000   51.24484   18.01063   19.87392
    4054      444        1     0.00000   51.26167    4.79228    6.67529
    4055      444        1     0.00000   38.14611   18.01930    6.68265
    4056      444        1     0.00000   38.11167    4.85669   19.81503
    4057      444        1     0.00000   27.59152   18.01957    6.36062
    4058      444        1     0.00000   27.60703    4.86458   19.53953
    4059      444        1     0.00000   40.75991   17.99118   19.50457
    4060      444        1     0.00000   40.80723    4.88955    6.44290
    4061      444        1     0.00000   27.63095    8.25782   19.87129
    4062      444        1     0.00000   27.62359   21.38416    6.70263
    4063      444        1     0.00000   40.75439    8.26965    6.71209
    4064      444        1     0.00000   40.78699   21.40492   19.77954
    4065      444        1     0.00000   32.71503   24.95905    8.30671
    4066      444        1     0.00000   32.72712   11.81010   21.45145
    4067      444        1     0.00000   45.82218   25.00426   21.38258
    4068      444        1     0.00000   45.79510   11.86504    8.30224
    4069      444        1     0.00000   46.18784   25.01083   18.02798
    4070      444        1     0.00000   46.12422   11.81115    4.94160
    4071      444        1     0.00000   33.00893   24.99559    4.88771
    4072      444        1     0.00000   32.98921   11.82771   18.01457
    4073      444        1     0.00000   32.70346    1.30362   17.98592
    4074      444        1     0.00000   32.70609   14.45624    4.84933
    4075      444        1     0.00000   45.89289    1.31729    4.84880
    4076      444        1     0.00000   45.87344   14.45282   17.98986
    4077      444        1     0.00000   46.15130    1.25788    8.31407
    4078      444        1     0.00000   46.13080   14.45940   21.42122
    4079      444        1     0.00000   33.01024    1.30756   21.40308
    4080      444        1     0.00000   33.03416   14.46755    8.24494
    4081      444        1     0.00000   32.72844    8.26071    1.30703
    4082      444        1     0.00000   32.74000   21.41807   14.46649
    4083      444        1     0.00000   45.87501    8.29199   14.43101
    4084      444        1     0.00000   45.80167   21.47143    1.23816
    4085      444        1     0.00000   46.10556   18.04244    1.33989
    4086      444        1     0.00000   46.17654    4.87483   14.44362
    4087      444        1     0.00000   32.99342   17.96489   14.45677
    4088      444        1     0.00000   33.03653    4.83066    1.32570
    4089      444        1     0.00000   32.71845   18.04796   24.95615
    4090      444        1     0.00000   32.71503    4.89612   11.83034
    4091      444        1     0.00000   45.88947   18.10895   11.77461
    4092      444        1     0.00000   45.84347    4.90848   24.96352
    4093      444        1     0.00000   46.18889    8.29147   24.98271
    4094      444        1     0.00000   46.25724   21.45329   11.84717
    4095      444        1     0.00000   33.04126    8.27622   11.83376
    4096      444        1     0.00000   33.05887   21.41202   24.94590
    4097      444        1     0.00000   34.58200   24.96246   19.83448
    4098      444        1     0.00000   34.57174   11.81799    6.71025
    4099      444        1     0.00000   47.69677   24.91120    6.65373
    4100      444        1     0.00000   47.71674   11.82666   19.85683
    4101      444        1     0.00000   44.27145   24.98560    6.38296
    4102      444        1     0.00000   44.29038   11.81773   19.55531
    4103      444        1     0.00000   31.15432   24.95773   19.56451
    4104      444        1     0.00000   31.17508   11.81589    6.39795
    4105      444        1     0.00000   44.31772    1.35067   19.88469
    4106      444        1     0.00000   44.30037   14.50303    6.73811
    4107      444        1     0.00000   31.16220    1.31965    6.75573
    4108      444        1     0.00000   31.13907   14.44257   19.88496
    4109      444        1     0.00000   34.57989    1.32701    6.46472
    4110      444        1     0.00000   34.56491   14.46203   19.60131
    4111      444        1     0.00000   47.68178    1.35330   19.55688
    4112      444        1     0.00000   47.65944   14.45966    6.39716
    4113      444        1     0.00000   51.26614    6.42634   18.00826
    4114      444        1     0.00000   51.25720   19.53033    4.85853
    4115      444        1     0.00000   38.16136    6.38428    4.82514
    4116      444        1     0.00000   38.10142   19.56687   17.98382
    4117      444        1     0.00000   51.25956   19.86997    8.21891
    4118      444        1     0.00000   51.27665    6.72103   21.41649
    4119      444        1     0.00000   38.14900   19.85998   21.38836
    4120      444        1     0.00000   38.13060    6.71446    8.25598
    4121      444        1     0.00000   27.61176    6.43239    8.29252
    4122      444        1     0.00000   27.59940   19.55846   21.43489
    4123      444        1     0.00000   40.74072    6.45946   21.42096
    4124      444        1     0.00000   40.79961   19.66440    8.19893
    4125      444        1     0.00000   27.60045   19.85157   18.01483
    4126      444        1     0.00000   27.60650    6.67976    4.82856
    4127      444        1     0.00000   40.73047   19.89547    4.78676
    4128      444        1     0.00000   40.75255    6.70157   17.96016
    4129      444        1     0.00000   44.24201   19.90940    1.24578
    4130      444        1     0.00000   44.32377    6.71656   14.43889
    4131      444        1     0.00000   31.17666   19.85604   14.45545
    4132      444        1     0.00000   31.16588    6.69868    1.30388
    4133      444        1     0.00000   34.61091    6.38375    1.30519
    4134      444        1     0.00000   34.55755   19.52849   14.45940
    4135      444        1     0.00000   47.73252    6.44606   14.45782
    4136      444        1     0.00000   47.67363   19.60420    1.33201
    4137      444        1     0.00000   34.62458   19.85262   24.95589
    4138      444        1     0.00000   34.60355    6.71209   11.83876
    4139      444        1     0.00000   47.80349   19.87628   11.83061
    4140      444        1     0.00000   47.73751    6.71104   24.97797
    4141      444        1     0.00000   44.30983    6.49837   24.93670
    4142      444        1     0.00000   44.32350   19.66861   11.80222
    4143      444        1     0.00000   31.15142    6.45999   11.82430
    4144      444        1     0.00000   31.15432   19.61104   24.94801
    4145      444        1     0.00000   27.59309   17.99827   19.86892
    4146      444        1     0.00000   27.62517    4.86931    6.72760
    4147      444        1     0.00000   40.79672   18.08397    6.65583
    4148      444        1     0.00000   40.74940    4.89533   19.85841
    4149      444        1     0.00000   27.60335    8.24073    6.39322
    4150      444        1     0.00000   27.61307   21.41228   19.58028
    4151      444        1     0.00000   40.75282    8.26597   19.52218
    4152      444        1     0.00000   40.72285   21.47301    6.33828
    4153      444        1     0.00000   51.27876    8.28936   19.85893
    4154      444        1     0.00000   51.27350   21.43673    6.65820
    4155      444        1     0.00000   38.12508    8.27412    6.69343
    4156      444        1     0.00000   38.14900   21.42832   19.83185
    4157      444        1     0.00000   51.24116   17.97041    6.42555
    4158      444        1     0.00000   51.26325    4.86063   19.56950
    4159      444        1     0.00000   38.12587   18.00090   19.54505
    4160      444        1     0.00000   38.15531    4.83329    6.40426
    4161      444        1     0.00000   46.12554    1.35409   17.98592
    4162      444        1     0.00000   46.09504   14.45703    4.83645
    4163      444        1     0.00000   33.01182    1.33306    4.90690
    4164      444        1     0.00000   32.99683   14.46071   18.04270
    4165      444        1     0.00000   32.72107    1.31571    8.32196
    4166      444        1     0.00000   32.70635   14.45177   21.44383
    4167      444        1     0.00000   45.87396    1.35225   21.45250
    4168      444        1     0.00000   45.86897   14.51013    8.29778
    4169      444        1     0.00000   46.17443   24.95984    8.25598
    4170      444        1     0.00000   46.14604   11.81957   21.41228
    4171      444        1     0.00000   33.02654   24.96062   21.40308
    4172      444        1     0.00000   33.00893   11.82219    8.27228
    4173      444        1     0.00000   32.71056   24.95721   17.99407
    4174      444        1     0.00000   32.73290   11.80879    4.83224
    4175      444        1     0.00000   45.83006   24.97903    4.81594
    4176      444        1     0.00000   45.86371   11.81957   18.00406
    4177      444        1     0.00000   46.13474   17.98960   24.97482
    4178      444        1     0.00000   46.16839    4.85327   11.82062
    4179      444        1     0.00000   33.05677   18.01299   11.81536
    4180      444        1     0.00000   33.02339    4.85327   24.95274
    4181      444        1     0.00000   32.73422    8.23311   24.96877
    4182      444        1     0.00000   32.71056   21.39204   11.82509
    4183      444        1     0.00000   45.87633    8.28516   11.80169
    4184      444        1     0.00000   45.88106   21.42438   24.91751
    4185      444        1     0.00000   46.14447    8.31802    1.32149
    4186      444        1     0.00000   46.14972   21.48457   14.47307
    4187      444        1     0.00000   32.99184    8.29646   14.46833
    4188      444        1     0.00000   32.98527   21.48747    1.29284
    4189      444        1     0.00000   32.76498   18.00931    1.30993
    4190      444        1     0.00000   32.73080    4.85380   14.45966
    4191      444        1     0.00000   45.90525   18.00879   14.41865
    4192      444        1     0.00000   45.88527    4.84381    1.30703
    4193      444        1     0.00000   44.37371    1.36750    6.45421
    4194      444        1     0.00000   44.29748   14.45808   19.54006
    4195      444        1     0.00000   31.14748    1.30414   19.55557
    4196      444        1     0.00000   31.15064   14.46176    6.41951
    4197      444        1     0.00000   34.56727    1.31071   19.83317
    4198      444        1     0.00000   34.59251   14.46597    6.67870
    4199      444        1     0.00000   47.71149    1.25420    6.74679
    4200      444        1     0.00000   47.70123   14.45992   19.86577
    4201      444        1     0.00000   34.57647   24.97429    6.44579
    4202      444        1     0.00000   34.55544   11.82509   19.57607
    4203      444        1     0.00000   47.74014   25.00899   19.60052
    4204      444        1     0.00000   47.69046   11.81930    6.50284
    4205      444        1     0.00000   44.26803   25.00032   19.80925
    4206      444        1     0.00000   44.23176   11.85900    6.74101
    4207      444        1     0.00000   31.15826   24.97403    6.73733
    4208      444        1     0.00000   31.16273   11.80458   19.88969
    4209      444        1     0.00000   27.60335   19.82108    8.26544
    4210      444        1     0.00000   27.62385    6.68370   21.42385
    4211      444        1     0.00000   40.78436   19.84999   21.35130
    4212      444        1     0.00000   40.74256    6.70972    8.28253
    4213      444        1     0.00000   27.61675    6.43396   17.98224
    4214      444        1     0.00000   27.60703   19.58764    4.80148
    4215      444        1     0.00000   40.80750    6.44895    4.87903
    4216      444        1     0.00000   40.73994   19.54190   17.92993
    4217      444        1     0.00000   51.25089   19.87102   18.02640
    4218      444        1     0.00000   51.24931    6.71892    4.87825
    4219      444        1     0.00000   38.11351   19.89731    4.82120
    4220      444        1     0.00000   38.11325    6.75047   18.00695
    4221      444        1     0.00000   51.26062    6.35326    8.24047
    4222      444        1     0.00000   51.24984   19.56976   21.44041
    4223      444        1     0.00000   38.10641    6.41977   21.37863
    4224      444        1     0.00000   38.13454   19.59369    8.23758
    4225      444        2     0.00000   33.65824    7.31066    0.00289
    4226      444        2     0.00000   33.62801   20.45356   13.14316
    4227      444        2     0.00000   46.80561    7.35194   13.11792
    4228      444        2     0.00000   46.74567   20.48195   -0.01866
    4229      444        2     0.00000   45.21466   18.94911   -0.01498
    4230      444        2     0.00000   45.29773    5.83749   13.12870
    4231      444        2     0.00000   32.11829   18.93675   13.13580
    4232      444        2     0.00000   32.12618    5.77440    0.00920
    4233      444        2     0.00000   45.22518    7.38217    0.00289
    4234      444        2     0.00000   45.30877   20.51219   13.14264
    4235      444        2     0.00000   32.11251    7.33616   13.14526
    4236      444        2     0.00000   32.13065   20.48879   -0.02261
    4237      444        2     0.00000   33.63405   18.99222   -0.01341
    4238      444        2     0.00000   33.62144    5.82750   13.15052
    4239      444        2     0.00000   46.79141   19.01351   13.12423
    4240      444        2     0.00000   46.74988    5.83486    0.00421
    4241      444        2     0.00000   26.28711    7.29410    7.31540
    4242      444        2     0.00000   26.28737   20.46750   20.48642
    4243      444        2     0.00000   39.42870    7.33800   20.44752
    4244      444        2     0.00000   39.43343   20.52822    7.28806
    4245      444        2     0.00000   26.27870   18.96330   18.97697
    4246      444        2     0.00000   26.28580    5.78229    5.80384
    4247      444        2     0.00000   39.43790   18.98775    5.76415
    4248      444        2     0.00000   39.43132    5.82987   18.93938
    4249      444        2     0.00000   26.27791   18.94648    7.28990
    4250      444        2     0.00000   26.29894    5.81804   20.45093
    4251      444        2     0.00000   39.45419   18.95568   20.41676
    4252      444        2     0.00000   39.44815    5.79780    7.31619
    4253      444        2     0.00000   26.30420    7.33432   18.94700
    4254      444        2     0.00000   26.29526   20.45777    5.78308
    4255      444        2     0.00000   39.44578    7.32828    5.78202
    4256      444        2     0.00000   39.44394   20.46040   18.90705
    4257      444        2     0.00000   33.64956   -0.00237    7.38559
    4258      444        2     0.00000   33.61355   13.13764   20.49168
    4259      444        2     0.00000   46.75119    0.03523   20.46855
    4260      444        2     0.00000   46.72175   13.16340    7.34247
    4261      444        2     0.00000   45.24910    0.03523   18.95042
    4262      444        2     0.00000   45.21256   13.15762    5.83854
    4263      444        2     0.00000   32.13249    0.01025    5.86667
    4264      444        2     0.00000   32.10094   13.13422   18.98565
    4265      444        2     0.00000   33.61539   -0.01052   18.93701
    4266      444        2     0.00000   33.63090   13.13738    5.78728
    4267      444        2     0.00000   46.76249   -0.02918    5.78676
    4268      444        2     0.00000   46.75645   13.13948   18.96094
    4269      444        2     0.00000   45.26224   -0.01919    7.30383
    4270      444        2     0.00000   45.24253   13.13843   20.45646
    4271      444        2     0.00000   32.11645   -0.01130   20.44936
    4272      444        2     0.00000   32.12802   13.14185    7.29778
    4273      444        3     0.00000   34.78757    4.64481   23.33761
    4274      444        3     0.00000   34.10855    5.32908   24.47035
    4275      444        3     0.00000   34.83804   17.79060   10.21890
    4276      444        3     0.00000   34.14903   18.48513   11.34507
    4277      444        3     0.00000   44.11609   21.62837   23.29450
    4278      444        3     0.00000   44.79800   20.94567   24.43040
    4279      444        3     0.00000   44.06536    8.50230   10.23703
    4280      444        3     0.00000   44.77960    7.80908   11.34139
    4281      444        3     0.00000   30.94112    8.46470   23.39597
    4282      444        3     0.00000   31.63565    7.76597   24.50768
    4283      444        3     0.00000   44.11451    4.65217    2.91848
    4284      444        3     0.00000   44.79484    5.31936    1.78101
    4285      444        3     0.00000   44.11557   17.78008   16.01301
    4286      444        3     0.00000   44.81771   18.48039   14.90366
    4287      444        3     0.00000   30.91799    4.61537   16.02169
    4288      444        3     0.00000   31.62829    5.31620   14.91943
    4289      444        3     0.00000   34.78099   21.70986    2.88326
    4290      444        3     0.00000   34.08200   21.02349    1.76655
    4291      444        3     0.00000   34.77311    8.51123   16.06532
    4292      444        3     0.00000   34.08384    7.82512   14.94362
    4293      444        3     0.00000   49.63708    8.49467    4.68135
    4294      444        3     0.00000   50.77114    7.80514    5.35958
    4295      444        3     0.00000   36.51074    8.52017   17.79165
    4296      444        3     0.00000   37.63954    7.84115   18.47934
    4297      444        3     0.00000   49.66310   17.77430   21.66649
    4298      444        3     0.00000   50.77850   18.47435   20.97196
    4299      444        3     0.00000   49.67072    4.57462    8.47943
    4300      444        3     0.00000   50.79033    5.25942    7.77228
    4301      444        3     0.00000   36.55622   17.79743    8.47128
    4302      444        3     0.00000   37.67424   18.49117    7.77570
    4303      444        3     0.00000   29.20218   17.79822    4.60143
    4304      444        3     0.00000   28.07232   18.49117    5.27309
    4305      444        3     0.00000   42.34665   17.76273   17.71226
    4306      444        3     0.00000   41.21943   18.45174   18.40127
    4307      444        3     0.00000   42.42473    4.69108    4.68845
    4308      444        3     0.00000   41.28962    5.36720    5.36063
    4309      444        3     0.00000   29.21453    8.46970   21.66307
    4310      444        3     0.00000   28.09808    7.78017   20.96381
    4311      444        3     0.00000   42.32825    8.49599    8.51097
    4312      444        3     0.00000   41.21575    7.80225    7.81224
    4313      444        3     0.00000   30.92798   23.35995    8.50992
    4314      444        3     0.00000   31.62224   24.49060    7.82827
    4315      444        3     0.00000   30.94585   10.20549   21.67122
    4316      444        3     0.00000   31.63486   11.33271   20.98248
    4317      444        3     0.00000   47.95780   23.41411   17.81110
    4318      444        3     0.00000   47.27695   24.53897   18.50248
    4319      444        3     0.00000   47.87789   10.19471    4.73550
    4320      444        3     0.00000   47.21044   11.33271    5.41925
    4321      444        3     0.00000   34.79913   23.42252    4.62982
    4322      444        3     0.00000   34.10592   24.52293    5.34486
    4323      444        3     0.00000   30.91168    2.88851   17.75958
    4324      444        3     0.00000   31.60831    1.77233   18.45647
    4325      444        3     0.00000   30.92929   16.05980    4.62877
    4326      444        3     0.00000   31.61514   14.93258    5.32251
    4327      444        3     0.00000   47.94729    2.83462    8.53463
    4328      444        3     0.00000   47.24961    1.71844    7.84799
    4329      444        3     0.00000   47.92731   16.04193   21.65571
    4330      444        3     0.00000   47.23016   14.92811   20.95908
    4331      444        3     0.00000   34.81938   16.06664    8.46865
    4332      444        3     0.00000   34.12616   14.94152    7.77412
    4333      444        3     0.00000   30.92009    8.50046    2.87116
    4334      444        3     0.00000   31.62724    7.79804    1.76707
    4335      444        3     0.00000   30.94165   21.63100   16.05560
    4336      444        3     0.00000   31.64248   20.94725   14.93310
    4337      444        3     0.00000   47.88735   17.81925    2.92900
    4338      444        3     0.00000   47.19835   18.51588    1.81124
    4339      444        3     0.00000   47.94124    4.66006   16.05060
    4340      444        3     0.00000   47.26223    5.34959   14.92496
    4341      444        3     0.00000   34.83068    4.60564    2.90508
    4342      444        3     0.00000   34.13773    5.29517    1.78469
    4343      444        3     0.00000   30.93770   17.80979   23.36363
    4344      444        3     0.00000   31.62513   18.51404   24.48087
    4345      444        3     0.00000   30.92877    4.65427   10.25780
    4346      444        3     0.00000   31.61935    5.36089   11.36294
    4347      444        3     0.00000   47.95570    8.50492   23.38046
    4348      444        3     0.00000   47.27511    7.81145   24.50821
    4349      444        3     0.00000   48.02510   21.67779   10.24413
    4350      444        3     0.00000   47.34687   20.98116   11.37136
    4351      444        3     0.00000   34.82043    8.49730   10.23651
    4352      444        3     0.00000   34.13563    7.80619   11.36400
    4353      444        3     0.00000   34.82332   23.37862   21.62890
    4354      444        3     0.00000   34.12169   24.49323   20.93358
    4355      444        3     0.00000   34.79992   10.22731    8.49835
    4356      444        3     0.00000   34.10382   11.34875    7.80645
    4357      444        3     0.00000   44.01331   23.43540    4.55070
    4358      444        3     0.00000   44.72597   24.52608    5.27440
    4359      444        3     0.00000   44.08113   10.22862   17.76273
    4360      444        3     0.00000   44.76645   11.34743   18.46383
    4361      444        3     0.00000   30.92693   10.22599    4.60958
    4362      444        3     0.00000   31.63538   11.34165    5.30253
    4363      444        3     0.00000   44.07508    2.94793   21.65913
    4364      444        3     0.00000   44.77933    1.82333   20.97985
    4365      444        3     0.00000   44.11346   16.14761    8.47154
    4366      444        3     0.00000   44.78354   14.99278    7.81723
    4367      444        3     0.00000   30.94375    2.91796    8.53410
    4368      444        3     0.00000   31.63013    1.79073    7.84957
    4369      444        3     0.00000   34.81464    2.89903    4.66321
    4370      444        3     0.00000   34.11170    1.79546    5.36851
    4371      444        3     0.00000   34.77179   16.05796   17.81952
    4372      444        3     0.00000   34.08962   14.93494   18.51089
    4373      444        3     0.00000   49.67020    4.64691   17.78455
    4374      444        3     0.00000   50.79295    5.33224   18.47645
    4375      444        3     0.00000   36.58802    4.58514    4.60879
    4376      444        3     0.00000   37.69895    5.28781    5.29833
    4377      444        3     0.00000   49.69806   21.65729    8.45761
    4378      444        3     0.00000   50.80110   20.96670    7.75256
    4379      444        3     0.00000   36.56910   21.65650   21.62968
    4380      444        3     0.00000   37.68318   20.96066   20.92885
    4381      444        3     0.00000   36.53571    8.49546    8.48600
    4382      444        3     0.00000   37.65637    7.80619    7.78832
    4383      444        3     0.00000   29.21006    4.64954    8.51938
    4384      444        3     0.00000   28.08941    5.33907    7.82459
    4385      444        3     0.00000   42.33035    4.67320   21.64835
    4386      444        3     0.00000   41.21312    5.36405   20.95461
    4387      444        3     0.00000   29.20454   21.62837   17.79007
    4388      444        3     0.00000   28.08021   20.94173   18.48407
    4389      444        3     0.00000   29.18982    8.48836    4.60485
    4390      444        3     0.00000   28.07416    7.77938    5.29701
    4391      444        3     0.00000   42.27094   21.71696    4.52625
    4392      444        3     0.00000   41.18210   21.00429    5.23892
    4393      444        3     0.00000   43.98202   21.73825    2.77968
    4394      444        3     0.00000   44.69626   21.01875    1.69242
    4395      444        3     0.00000   44.08560    8.50966   16.01774
    4396      444        3     0.00000   44.78275    7.81802   14.90235
    4397      444        3     0.00000   34.77022   17.76536   16.06585
    4398      444        3     0.00000   34.08437   18.43807   14.93310
    4399      444        3     0.00000   34.84303   21.64756   23.36495
    4400      444        3     0.00000   34.15587   20.94672   24.48166
    4401      444        3     0.00000   44.06720    4.69923   23.36889
    4402      444        3     0.00000   44.76225    5.39375   24.48113
    4403      444        3     0.00000   44.12398   17.91258   10.16842
    4404      444        3     0.00000   44.79931   18.58739   11.30564
    4405      444        3     0.00000   29.18851   17.77483   21.65045
    4406      444        3     0.00000   28.06628   18.46357   20.96329
    4407      444        3     0.00000   42.40922   17.90390    8.42369
    4408      444        3     0.00000   41.27831   18.57372    7.73469
    4409      444        3     0.00000   42.34902    8.49362   17.74407
    4410      444        3     0.00000   41.22547    7.79647   18.42887
    4411      444        3     0.00000   49.68177    8.50624   21.64441
    4412      444        3     0.00000   50.80610    7.81750   20.95224
    4413      444        3     0.00000   49.63813   17.77167    4.64060
    4414      444        3     0.00000   50.77298   18.44280    5.33092
    4415      444        3     0.00000   36.50312   17.78639   17.79454
    4416      444        3     0.00000   37.63533   18.47435   18.46226
    4417      444        3     0.00000   47.92705    2.92847   17.77509
    4418      444        3     0.00000   47.22095    1.81965   18.45989
    4419      444        3     0.00000   47.88551   16.05744    4.62746
    4420      444        3     0.00000   47.19072   14.92969    5.30464
    4421      444        3     0.00000   30.92824   16.05271   21.65361
    4422      444        3     0.00000   31.61251   14.92180   20.97354
    4423      444        3     0.00000   47.95754   23.36994    8.47128
    4424      444        3     0.00000   47.25197   24.46957    7.76913
    4425      444        3     0.00000   47.93888   10.23151   21.64020
    4426      444        3     0.00000   47.24488   11.35217   20.94830
    4427      444        3     0.00000   30.92298   23.37205   17.77667
    4428      444        3     0.00000   31.61698   24.48902   18.46672
    4429      444        3     0.00000   47.91627   17.77483   23.38177
    4430      444        3     0.00000   47.22253   18.46304   24.49901
    4431      444        3     0.00000   47.94729    4.60354   10.22783
    4432      444        3     0.00000   47.26170    5.31252   11.34218
    4433      444        3     0.00000   30.93061   21.61365   10.23151
    4434      444        3     0.00000   31.61987   20.91965   11.35059
    4435      444        3     0.00000   47.88026    8.49152    2.97264
    4436      444        3     0.00000   47.21570    7.82801    1.81676
    4437      444        3     0.00000   47.94151   21.69146   16.06927
    4438      444        3     0.00000   47.24383   21.01323   14.94257
    4439      444        3     0.00000   30.95742   17.79139    2.89272
    4440      444        3     0.00000   31.66562   18.47645    1.77548
    4441      444        3     0.00000   44.14317    2.95213    4.67609
    4442      444        3     0.00000   44.82902    1.82307    5.34854
    4443      444        3     0.00000   44.09217   16.04272   17.74118
    4444      444        3     0.00000   44.77539   14.92496   18.44675
    4445      444        3     0.00000   34.79151    2.90297   21.61575
    4446      444        3     0.00000   34.10172    1.78022   20.92964
    4447      444        3     0.00000   34.77810   10.24650   17.78718
    4448      444        3     0.00000   34.08594   11.36005   18.47987
    4449      444        3     0.00000   44.06904   23.39150   21.58999
    4450      444        3     0.00000   44.73701   24.52687   20.90414
    4451      444        3     0.00000   44.02382   10.26201    8.53174
    4452      444        3     0.00000   44.70231   11.39107    7.83800
    4453      444        3     0.00000   29.20428   21.61023    8.49467
    4454      444        3     0.00000   28.08494   20.91465    7.79962
    4455      444        3     0.00000   42.37189   21.63336   21.57132
    4456      444        3     0.00000   41.25676   20.94015   20.87654
    4457      444        3     0.00000   29.18272    4.62457   17.74775
    4458      444        3     0.00000   28.07574    5.33092   18.44412
    4459      444        3     0.00000   49.66810   21.66412   17.80926
    4460      444        3     0.00000   50.78612   20.96670   18.49748
    4461      444        3     0.00000   36.53413   21.69619    4.59407
    4462      444        3     0.00000   37.65137   20.99746    5.28229
    4463      444        3     0.00000   36.51547    4.63955   21.60103
    4464      444        3     0.00000   37.63691    5.32619   20.90834
    4465      444        3     0.00000   35.93530    5.20763   22.75086
    4466      444        4     0.00000   36.34802    6.12114   23.16095
    4467      444        3     0.00000   35.98998   18.35027    9.63583
    4468      444        4     0.00000   36.41374   19.25326   10.05801
    4469      444        3     0.00000   42.97046   21.05845   22.70907
    4470      444        4     0.00000   42.57404   20.13443   23.11074
    4471      444        3     0.00000   42.91868    7.92843    9.65581
    4472      444        4     0.00000   42.51253    7.01046   10.06590
    4473      444        3     0.00000   29.78261   21.04767    9.64713
    4474      444        4     0.00000   29.36516   20.13942   10.06459
    4475      444        3     0.00000   42.98335    5.23602    3.51942
    4476      444        4     0.00000   42.55932    6.14006    3.10092
    4477      444        3     0.00000   42.94312   18.32871   16.56900
    4478      444        4     0.00000   42.52304   19.23144   16.14261
    4479      444        3     0.00000   29.79576   18.35553    3.45423
    4480      444        4     0.00000   29.38067   19.26141    3.02810
    4481      444        3     0.00000   35.94660   21.14756    3.44003
    4482      444        4     0.00000   36.37141   20.25272    3.00182
    4483      444        3     0.00000   35.92872    7.95235   16.64261
    4484      444        4     0.00000   36.35065    7.04726   16.22279
    4485      444        3     0.00000   49.06269    9.64372    5.25495
    4486      444        4     0.00000   49.51379   10.08325    6.13533
    4487      444        3     0.00000   49.09528   22.81579   18.37813
    4488      444        4     0.00000   49.50669   23.21984   19.29453
    4489      444        3     0.00000   35.93635    9.67684   18.34475
    4490      444        4     0.00000   36.36300   10.10533   19.24301
    4491      444        3     0.00000   49.09370   16.61264   21.10945
    4492      444        4     0.00000   49.52009   16.19229   20.20725
    4493      444        3     0.00000   49.09844    3.40218    7.95603
    4494      444        4     0.00000   49.51563    2.95923    7.06067
    4495      444        3     0.00000   35.94686    3.47579   21.05424
    4496      444        4     0.00000   36.37404    3.04598   20.15677
    4497      444        3     0.00000   29.77131   16.64418    5.17609
    4498      444        4     0.00000   29.34045   16.22989    6.08092
    4499      444        3     0.00000   29.75843    3.47184   18.31609
    4500      444        4     0.00000   29.33993    3.06070   19.22671
    4501      444        3     0.00000   29.79129    9.62899   21.11024
    4502      444        4     0.00000   29.36858   10.05460   20.20909
    4503      444        3     0.00000   29.77394   22.77925    7.94683
    4504      444        4     0.00000   29.34571   23.21274    7.05199
    4505      444        3     0.00000   31.48055   22.78241    9.66895
    4506      444        4     0.00000   32.37223   23.21537   10.10533
    4507      444        3     0.00000   44.65526   22.79950   22.72826
    4508      444        4     0.00000   45.56350   23.22063   23.14308
    4509      444        3     0.00000   44.59374    9.68262    9.68157
    4510      444        4     0.00000   45.48648   10.11742   10.11296
    4511      444        3     0.00000   47.39945   22.85365   16.64655
    4512      444        4     0.00000   46.51013   23.29581   16.21517
    4513      444        3     0.00000   47.27958    9.59219    3.61143
    4514      444        4     0.00000   46.32296    9.96127    3.25681
    4515      444        3     0.00000   34.22606   22.85733    3.47684
    4516      444        4     0.00000   33.31571   23.28188    3.07122
    4517      444        3     0.00000   31.47187    3.46001   16.60212
    4518      444        4     0.00000   32.37670    3.03757   16.18441
    4519      444        3     0.00000   44.66945    3.49734    3.49208
    4520      444        4     0.00000   45.54247    3.04782    3.03993
    4521      444        3     0.00000   47.39130    3.43057    9.68289
    4522      444        4     0.00000   46.49041    3.01549   10.12005
    4523      444        3     0.00000   34.23079    3.48551   22.76716
    4524      444        4     0.00000   33.32938    3.06385   23.19250
    4525      444        3     0.00000   31.47450    9.65923    3.44450
    4526      444        4     0.00000   32.37092   10.08877    3.01549
    4527      444        3     0.00000   44.64185    9.66369   16.60186
    4528      444        4     0.00000   45.54168   10.09561   16.17968
    4529      444        3     0.00000   47.32059   16.66180    3.49287
    4530      444        4     0.00000   46.40550   16.25775    3.07779
    4531      444        3     0.00000   34.21002   16.62236   16.66022
    4532      444        4     0.00000   33.30493   16.19939   16.24619
    4533      444        3     0.00000   34.24420    3.48341    3.51785
    4534      444        4     0.00000   33.31308    3.09146    3.12984
    4535      444        3     0.00000   31.50263   16.65496   22.78951
    4536      444        4     0.00000   32.41824   16.24855   23.20144
    4537      444        3     0.00000   31.49028    3.49208    9.69603
    4538      444        4     0.00000   32.38433    3.06280   10.13504
    4539      444        3     0.00000   44.66603   16.73435    9.62269
    4540      444        4     0.00000   45.54431   16.28982   10.07300
    4541      444        3     0.00000   47.38657    9.65739   22.80028
    4542      444        4     0.00000   46.48332   10.08404   23.22299
    4543      444        3     0.00000   34.25550    9.65397    9.66369
    4544      444        4     0.00000   33.36250   10.08299   10.10139
    4545      444        3     0.00000   35.98130   22.80659   21.06923
    4546      444        4     0.00000   36.39533   23.22589   20.16256
    4547      444        3     0.00000   35.95317    9.65081    7.93185
    4548      444        4     0.00000   36.37325   10.07720    7.02938
    4549      444        3     0.00000   42.86190   22.85470    5.10564
    4550      444        4     0.00000   42.45785   23.25612    6.02650
    4551      444        3     0.00000   42.92472    9.64582   18.31373
    4552      444        4     0.00000   42.49939   10.06406   19.21751
    4553      444        3     0.00000   29.77052    9.64345    5.17083
    4554      444        4     0.00000   29.35281   10.05801    6.08065
    4555      444        3     0.00000   42.91316    3.51364   21.09657
    4556      444        4     0.00000   42.49097    3.08147   20.19752
    4557      444        3     0.00000   42.97073   16.72857    7.89294
    4558      444        4     0.00000   42.54223   16.28772    7.00178
    4559      444        3     0.00000   29.79996    3.50155    7.96129
    4560      444        4     0.00000   29.39566    3.08830    7.04910
    4561      444        3     0.00000   35.99576    3.44976    5.19317
    4562      444        4     0.00000   36.41663    3.03494    6.10221
    4563      444        3     0.00000   35.92688   16.63998   18.37130
    4564      444        4     0.00000   36.35143   16.22805   19.27902
    4565      444        3     0.00000   49.09476    5.21420   16.63288
    4566      444        4     0.00000   49.51720    6.11930   16.21622
    4567      444        3     0.00000   49.06137   18.35079    3.49392
    4568      444        4     0.00000   49.50196   19.24563    3.06964
    4569      444        3     0.00000   36.01363    5.13692    3.44924
    4570      444        4     0.00000   36.44896    6.02545    3.00996
    4571      444        3     0.00000   49.17309   21.12548    9.65055
    4572      444        4     0.00000   49.62945   20.24563   10.08798
    4573      444        3     0.00000   49.11027    7.94972   22.80318
    4574      444        4     0.00000   49.53271    7.05015   23.23114
    4575      444        3     0.00000   35.97184    7.93921    9.65003
    4576      444        4     0.00000   36.40401    7.04174   10.07563
    4577      444        3     0.00000   29.77131    5.20422    9.68183
    4578      444        4     0.00000   29.33809    6.10037   10.10717
    4579      444        3     0.00000   29.77157   18.34948   22.79450
    4580      444        4     0.00000   29.34518   19.25247   23.21248
    4581      444        3     0.00000   29.79339   21.06081   16.64208
    4582      444        4     0.00000   29.37936   20.14941   16.22805
    4583      444        3     0.00000   29.76079    7.94263    3.44109
    4584      444        4     0.00000   29.33335    7.04568    3.00970
    4585      444        3     0.00000   42.81458   21.18910    3.34067
    4586      444        4     0.00000   42.37662   20.29952    2.90034
    4587      444        3     0.00000   42.92630    7.94762   16.58398
    4588      444        4     0.00000   42.50228    7.05173   16.14866
    4589      444        3     0.00000   35.92610   18.33160   16.63393
    4590      444        4     0.00000   36.35222   19.22723   16.19887
    4591      444        3     0.00000   36.00496   21.10156   22.79266
    4592      444        4     0.00000   36.44160   20.21093   23.22536
    4593      444        3     0.00000   42.90290    5.24312   22.79844
    4594      444        4     0.00000   42.46679    6.14112   23.21879
    4595      444        3     0.00000   42.99386   18.48881    9.56249
    4596      444        4     0.00000   42.59402   19.41756    9.95128
    4597      444        3     0.00000   29.76106   16.61264   21.10130
    4598      444        4     0.00000   29.32678   16.17179   20.21171
    4599      444        3     0.00000   29.76631   22.79766   18.33476
    4600      444        4     0.00000   29.33151   23.23351   19.22618
    4601      444        3     0.00000   49.09765    9.65739   21.08237
    4602      444        4     0.00000   49.52167   10.08036   20.17991
    4603      444        3     0.00000   49.09029   22.78346    7.88295
    4604      444        4     0.00000   49.46358   23.16674    6.94079
    4605      444        3     0.00000   49.04902   16.61790    5.19028
    4606      444        4     0.00000   49.46883   16.18493    6.09012
    4607      444        3     0.00000   49.09055    3.48946   18.33555
    4608      444        4     0.00000   49.51720    3.05281   19.23144
    4609      444        3     0.00000   47.37526    3.50733   16.62105
    4610      444        4     0.00000   46.47122    3.08699   16.19729
    4611      444        3     0.00000   44.62870    3.53967   22.80607
    4612      444        4     0.00000   45.52959    3.12511   23.23745
    4613      444        3     0.00000   47.43914   22.81685    9.65844
    4614      444        4     0.00000   46.53510   23.22904   10.08903
    4615      444        3     0.00000   34.27285   22.80055   22.78872
    4616      444        4     0.00000   33.36749   23.21852   23.21327
    4617      444        3     0.00000   31.48502   22.79634   16.62315
    4618      444        4     0.00000   32.38170   23.22667   16.19598
    4619      444        3     0.00000   44.55746   22.87731    3.37694
    4620      444        4     0.00000   45.47544   23.28240    2.97027
    4621      444        3     0.00000   47.35739   16.62342   22.80055
    4622      444        4     0.00000   46.44257   16.21017   23.20722
    4623      444        3     0.00000   34.28021   16.62946    9.64345
    4624      444        4     0.00000   33.39641   16.18861   10.08483
    4625      444        3     0.00000   31.50158    9.62453   22.82605
    4626      444        4     0.00000   32.40352   10.04566   23.25322
    4627      444        3     0.00000   34.21686    9.66869   16.63551
    4628      444        4     0.00000   33.31282   10.08956   16.21201
    4629      444        3     0.00000   31.49895   16.63183    3.47447
    4630      444        4     0.00000   32.39905   16.20307    3.05492
    4631      444        3     0.00000   44.67287   16.62710   16.59871
    4632      444        4     0.00000   45.58953   16.21359   16.19545
    4633      444        3     0.00000   43.00700    3.54387    5.25548
    4634      444        4     0.00000   42.59376    3.12826    6.16872
    4635      444        3     0.00000   42.91894   16.60686   18.27456
    4636      444        4     0.00000   42.47914   16.17521   19.16362
    4637      444        3     0.00000   35.96474   16.65444    7.90057
    4638      444        4     0.00000   36.36431   16.25302    6.97891
    4639      444        3     0.00000   35.96894   22.85181    5.16268
    4640      444        4     0.00000   36.41242   23.27688    6.05437
    4641      444        3     0.00000   42.91657   22.81159   21.03453
    4642      444        4     0.00000   42.48072   23.24218   20.14153
    4643      444        3     0.00000   42.88135    9.66948    7.96786
    4644      444        4     0.00000   42.45312   10.09271    7.06803
    4645      444        3     0.00000   29.78366    7.91003   22.82079
    4646      444        4     0.00000   29.35675    7.00888   23.24455
    4647      444        3     0.00000   29.75238    5.16925   16.58267
    4648      444        4     0.00000   29.32152    6.06304   16.14682
    4649      444        3     0.00000   49.09397   21.12075   16.64392
    4650      444        4     0.00000   49.51799   20.22538   16.20754
    4651      444        3     0.00000   49.06242    7.95551    3.51469
    4652      444        4     0.00000   49.50774    7.08459    3.05203
    4653      444        3     0.00000   49.09370    5.15716    9.62531
    4654      444        4     0.00000   49.50984    6.07435   10.02068
    4655      444        3     0.00000   49.07609   18.33476   22.81527
    4656      444        4     0.00000   49.48907   19.24195   23.23956
    4657      513        5     0.00000   44.11872   11.90001   13.49305
    4658      513        6     0.00000   43.90158   11.51909   14.38080
    4659      513        6     0.00000   43.55668   11.38766   12.85899
    4660      514        5     0.00000   41.14477   24.90016   23.70275
    4661      514        6     0.00000   40.75991   23.98876   23.66305
    4662      514        6     0.00000   41.70444   24.96851   22.88887
    4663      515        5     0.00000   45.20231   15.12869   13.06298
    4664      515        6     0.00000   45.78853   14.90471   12.29722
    4665      515        6     0.00000   45.81771   15.19046   13.83585
    4666      516        5     0.00000   43.34033   11.82403    3.32174
    4667      516        6     0.00000   43.50174   11.71941    2.35040
    4668      516        6     0.00000   42.61006   12.48991    3.38246
    4669      517        5     0.00000   40.04830   11.75805    4.81883
    4670      517        6     0.00000   39.62480   12.07298    3.98130
    4671      517        6     0.00000   39.29726   11.66552    5.45711
    4672      518        5     0.00000   27.36123   15.61186    8.99914
    4673      518        6     0.00000   27.16145   15.06507    8.19920
    4674      518        6     0.00000   28.34808   15.58715    9.07642
    4675      519        5     0.00000   51.97118   24.75821   13.84847
    4676      519        6     0.00000   52.12339   25.54395   14.43153
    4677      519        6     0.00000   52.24457   25.06157   12.94626
    4678      520        5     0.00000   50.33712   13.35767    3.06727
    4679      520        6     0.00000   50.82371   12.95862    2.30335
    4680      520        6     0.00000   50.63523   12.83612    3.85433
    4681      521        5     0.00000   39.05304   15.75776   14.63474
    4682      521        6     0.00000   38.64952   15.06192   15.21254
    4683      521        6     0.00000   38.36377   16.46674   14.58216
    4684      522        5     0.00000   28.86753   11.76804    1.18532
    4685      522        6     0.00000   28.27053   11.07825    0.80126
    4686      522        6     0.00000   28.63488   11.79275    2.14720
    4687      523        5     0.00000   39.41818   15.09136    0.31782
    4688      523        6     0.00000   39.92107   15.78404   -0.17955
    4689      523        6     0.00000   40.11665   14.53248    0.74211
    4690      524        5     0.00000   39.31960    2.28994   22.13993
    4691      524        6     0.00000   38.62376    2.79204   22.63362
    4692      524        6     0.00000   39.55645    2.87590   21.37969
    4693      525        5     0.00000   49.72672    1.14852   22.37232
    4694      525        6     0.00000   48.88656    1.29836   22.87442
    4695      525        6     0.00000   49.47199    0.53154   21.64099
    4696      526        5     0.00000   47.55192   19.68990   19.65573
    4697      526        6     0.00000   47.69545   18.79007   19.26824
    4698      526        6     0.00000   47.17495   19.51666   20.55477
    4699      527        5     0.00000   38.15662   25.32129    4.02336
    4700      527        6     0.00000   38.83827   25.12151    3.33331
    4701      527        6     0.00000   38.46446   24.82866    4.82541
    4702      528        5     0.00000   32.49579   12.87949   11.14292
    4703      528        6     0.00000   31.76840   12.45416   10.62452
    4704      528        6     0.00000   32.17350   12.86057   12.07850
    4705      529        5     0.00000   35.09908   23.61863   14.33400
    4706      529        6     0.00000   34.55413   24.16252   14.95597
    4707      529        6     0.00000   36.01837   23.97272   14.43442
    4708      530        5     0.00000   31.67718    7.53017   17.98566
    4709      530        6     0.00000   31.97739    8.25335   18.59133
    4710      530        6     0.00000   31.59779    7.96366   17.09949
    4711      531        5     0.00000   46.86423    7.40294   18.95147
    4712      531        6     0.00000   46.14289    7.12875   18.33055
    4713      531        6     0.00000   46.71649    6.85431   19.76272
    4714      532        5     0.00000   33.25393    7.39189    5.30280
    4715      532        6     0.00000   33.39720    7.01913    4.39875
    4716      532        6     0.00000   33.81754    8.20498    5.33040
    4717      533        5     0.00000   42.36952   11.73965   22.56843
    4718      533        6     0.00000   41.91711   12.53328   22.95039
    4719      533        6     0.00000   42.66500   12.03223   21.67069
    4720      534        5     0.00000   34.29414    1.32360   25.31157
    4721      534        6     0.00000   34.43662    0.85856   24.44906
    4722      534        6     0.00000   33.31019    1.39457   25.39595
    4723      535        5     0.00000   26.37097    3.58593   15.04667
    4724      535        6     0.00000   26.71061    4.38955   14.57874
    4725      535        6     0.00000   27.18432    3.13089   15.38052
    4726      536        5     0.00000   40.76254    3.16480    9.98414
    4727      536        6     0.00000   40.24704    2.34041    9.79776
    4728      536        6     0.00000   41.60454    3.05203    9.47521
    4729      537        5     0.00000   36.00470   14.74173   25.58864
    4730      537        6     0.00000   36.38561   14.67890   24.67777
    4731      537        6     0.00000   36.64849   14.25330   26.16014
    4732      538        5     0.00000   50.96409   10.35349    0.29626
    4733      538        6     0.00000   50.19675   10.52173   -0.30625
    4734      538        6     0.00000   50.57713    9.85060    1.05651
    4735      539        5     0.00000   50.78428   15.71990    0.35305
    4736      539        6     0.00000   50.78060   14.83558   -0.09174
    4737      539        6     0.00000   51.53086   16.20912   -0.07545
    4738      540        5     0.00000   50.32740    8.35850   11.73255
    4739      540        6     0.00000   50.13628    8.03253   12.64501
    4740      540        6     0.00000   49.46068    8.70366   11.40527
    4741      541        5     0.00000   39.74836   23.27320   15.45229
    4742      541        6     0.00000   40.19762   23.94355   14.87790
    4743      541        6     0.00000   38.78149   23.42068   15.29667
    4744      542        5     0.00000   26.78448   16.29455   17.39339
    4745      542        6     0.00000   27.11071   15.53851   17.94254
    4746      542        6     0.00000   25.84416   16.42205   17.67546
    4747      543        5     0.00000   29.99213   26.02765   10.26595
    4748      543        6     0.00000   29.85727   26.98427   10.05170
    4749      543        6     0.00000   30.28261   26.02397   11.21205
    4750      544        5     0.00000   28.92142    0.08465   15.71806
    4751      544        6     0.00000   29.88855    0.03996   15.92626
    4752      544        6     0.00000   28.47321   -0.10568   16.58004
    4753      545        5     0.00000   40.74467   26.04868   17.62025
    4754      545        6     0.00000   41.51306   25.42434   17.63550
    4755      545        6     0.00000   40.05698   25.60994   18.18176
    4756      546        5     0.00000   34.86669    1.49788   14.58295
    4757      546        6     0.00000   35.79702    1.70530   14.84846
    4758      546        6     0.00000   34.66322    0.64379   15.03957
    4759      547        5     0.00000   47.63105   11.62740   14.90813
    4760      547        6     0.00000   48.52221   11.42919   15.29141
    4761      547        6     0.00000   47.64997   12.60032   14.72438
    4762      548        5     0.00000   37.12193   12.33586   12.91288
    4763      548        6     0.00000   36.92109   13.18601   13.37923
    4764      548        6     0.00000   37.68213   11.82771   13.55194
    4765      549        5     0.00000   30.59228   15.01249   25.54106
    4766      549        6     0.00000   30.93981   14.47123   24.78870
    4767      549        6     0.00000   31.36068   15.56953   25.82234
    4768      550        5     0.00000   26.50583    1.71213    9.25676
    4769      550        6     0.00000   26.15278    1.93348    8.35824
    4770      550        6     0.00000   27.47138    1.54862    9.11112
    4771      551        5     0.00000   41.57195   16.27142   22.09629
    4772      551        6     0.00000   41.41738   16.58004   23.02373
    4773      551        6     0.00000   42.50254   16.54219   21.89572
    4774      552        5     0.00000   41.22258    8.42369   24.83970
    4775      552        6     0.00000   41.14056    8.40293   23.85338
    4776      552        6     0.00000   41.69524    7.58485   25.06814
    4777      553        5     0.00000   51.92596   23.17147   25.66225
    4778      553        6     0.00000   51.32292   23.45722   24.93118
    4779      553        6     0.00000   51.82291   23.86915   26.35651
    4780      554        5     0.00000   29.48950   24.51189    4.09224
    4781      554        6     0.00000   29.75948   25.10389    3.34671
    4782      554        6     0.00000   28.58099   24.81814    4.33908
    4783      555        5     0.00000   35.55360   11.47230   26.24715
    4784      555        6     0.00000   35.54571   11.39712   25.26031
    4785      555        6     0.00000   36.32094   10.91579   26.53290
    4786      556        5     0.00000   37.83039   12.42156   23.26532
    4787      556        6     0.00000   38.29043   12.96151   23.95616
    4788      556        6     0.00000   38.11062   12.82692   22.40649
    4789      557        5     0.00000   30.84333   16.03509   11.42262
    4790      557        6     0.00000   30.93455   15.97384   10.43893
    4791      557        6     0.00000   31.52051   15.40576   11.77382
    4792      558        5     0.00000   35.89481   22.85917   10.46258
    4793      558        6     0.00000   36.76889   23.24560   10.72178
    4794      558        6     0.00000   35.30702   23.03109   11.24044
    4795      559        5     0.00000   27.07128   21.91464   14.94309
    4796      559        6     0.00000   27.93589   21.97038   14.46413
    4797      559        6     0.00000   27.16040   22.55765   15.69072
    4798      560        5     0.00000   26.50635   15.57637   22.72983
    4799      560        6     0.00000   26.32313   14.72990   23.20985
    4800      560        6     0.00000   26.41224   15.34425   21.77164
    4801      561        5     0.00000   36.14350   22.54293   17.32504
    4802      561        6     0.00000   35.18898   22.77242   17.45411
    4803      561        6     0.00000   36.24917   21.66649   17.77167
    4804      562        5     0.00000   36.97262   17.25143   23.92909
    4805      562        6     0.00000   36.07094   17.65916   23.92067
    4806      562        6     0.00000   37.49864   17.79244   23.28898
    4807      563        5     0.00000   46.62501   20.22591    7.54463
    4808      563        6     0.00000   46.31797   20.17439    8.47943
    4809      563        6     0.00000   46.26224   21.08027    7.21314
    4810      564        5     0.00000   38.02466   23.70459   24.51163
    4811      564        6     0.00000   37.04911   23.66095   24.67330
    4812      564        6     0.00000   38.41819   23.86968   25.40463
    4813      565        5     0.00000   42.85375   13.36030   10.15370
    4814      565        6     0.00000   42.30091   12.70284   10.64607
    4815      565        6     0.00000   42.49124   14.24147   10.42236
    4816      566        5     0.00000   48.58293   13.40630   25.16357
    4817      566        6     0.00000   48.56821   13.43101   24.17383
    4818      566        6     0.00000   47.63893   13.54169   25.42986
    4819      567        5     0.00000   32.17876    0.53233    1.98921
    4820      567        6     0.00000   31.59753    0.29574    1.22370
    4821      567        6     0.00000   31.56257    0.57413    2.76286
    4822      568        5     0.00000   28.03762    2.37695   12.45232
    4823      568        6     0.00000   28.59493    1.56019   12.47992
    4824      568        6     0.00000   28.60965    3.08304   12.84637
    4825      569        5     0.00000   51.58606   13.50278   18.82082
    4826      569        6     0.00000   50.81661   14.10793   18.96961
    4827      569        6     0.00000   51.73432   13.52539   17.84186
    4828      570        5     0.00000   41.23941   12.96966   15.83820
    4829      570        6     0.00000   42.20838   12.86398   16.01196
    4830      570        6     0.00000   41.18131   13.73490   15.21228
    4831      571        5     0.00000   38.97760   11.85532    1.06571
    4832      571        6     0.00000   38.92739   11.92051    0.07913
    4833      571        6     0.00000   39.22312   10.91211    1.24053
    4834      572        5     0.00000   35.42426    4.00338    9.47127
    4835      572        6     0.00000   34.63851    3.72578    8.93657
    4836      572        6     0.00000   36.19450    3.57410    9.02096
    4837      573        5     0.00000   50.31478   13.66261    9.83930
    4838      573        6     0.00000   50.25248   14.03248   10.75543
    4839      573        6     0.00000   51.25194   13.83006    9.56748
    4840      574        5     0.00000   30.17430    3.15534   24.04212
    4841      574        6     0.00000   30.94007    2.67059   23.64518
    4842      574        6     0.00000   29.40012    2.55755   23.89255
    4843      575        5     0.00000   43.53539    3.50339   12.02093
    4844      575        6     0.00000   43.03408    2.69819   11.73807
    4845      575        6     0.00000   42.83640    4.16137   12.26304
    4846      576        5     0.00000   26.45930    9.99650    3.01549
    4847      576        6     0.00000   25.77476    9.55197    3.57279
    4848      576        6     0.00000   26.29842   10.96337    3.15350
    4849      577        5     0.00000   47.55770    1.51077    1.65745
    4850      577        6     0.00000   46.86896    1.21135    1.01182
    4851      577        6     0.00000   48.37605    1.01997    1.39326
    4852      578        5     0.00000   30.16537   11.17236   14.11029
    4853      578        6     0.00000   30.43876   11.19838   13.15920
    4854      578        6     0.00000   31.01289   11.05774   14.60897
    4855      579        5     0.00000   39.15136   12.19969    9.96942
    4856      579        6     0.00000   38.29017   12.68365    9.89634
    4857      579        6     0.00000   39.07328   11.67893   10.80801
    4858      580        5     0.00000   38.56750    2.56149   15.59293
    4859      580        6     0.00000   37.85458    2.59146   16.27957
    4860      580        6     0.00000   38.76256    3.51206   15.39630
    4861      581        5     0.00000   27.25293    4.72735   25.67066
    4862      581        6     0.00000   27.89067    5.40532   26.00846
    4863      581        6     0.00000   27.33968    3.96816   26.30052
    4864      582        5     0.00000   49.89601   17.11316   10.35875
    4865      582        6     0.00000   49.48303   16.81611    9.50912
    4866      582        6     0.00000   50.83344   16.79876   10.30249
    4867      583        5     0.00000   41.18052   15.38368    3.75128
    4868      583        6     0.00000   41.03331   14.45756    4.06805
    4869      583        6     0.00000   40.98205   15.94966    4.53913
    4870      584        5     0.00000   29.25948   12.10216    8.72601
    4871      584        6     0.00000   29.32363   12.56036    9.60113
    4872      584        6     0.00000   29.25975   12.83638    8.06145
    4873      585        5     0.00000   26.79710   10.18052   17.35790
    4874      585        6     0.00000   27.25766   10.87189   17.89707
    4875      585        6     0.00000   25.91251   10.07694   17.79060
    4876      586        5     0.00000   51.37471   25.10810   20.18569
    4877      586        6     0.00000   52.27165   25.34022   20.53479
    4878      586        6     0.00000   51.49300   25.06551   19.20331
    4879      587        5     0.00000   48.43309   16.82846   15.71780
    4880      587        6     0.00000   48.36579   16.66443   14.74357
    4881      587        6     0.00000   48.93387   17.67888   15.79324
    4882      588        5     0.00000   39.04095    5.97918   25.85389
    4883      588        6     0.00000   39.73942    6.36246   26.43853
    4884      588        6     0.00000   39.43290    6.00258   24.94669
    4885      589        5     0.00000   40.09615   19.94647   24.74533
    4886      589        6     0.00000   39.46970   20.27559   24.05343
    4887      589        6     0.00000   39.95997   20.55582   25.51293
    4888      590        5     0.00000   34.75129   26.03080   11.54381
    4889      590        6     0.00000   34.97316   25.59916   12.40657
    4890      590        6     0.00000   34.00261   25.49322   11.18182
    4891      591        5     0.00000   49.26589   22.63204    0.94190
    4892      591        6     0.00000   48.30218   22.41727    0.88485
    4893      591        6     0.00000   49.33319   23.27031    1.69557
    4894      592        5     0.00000   37.33434    0.76629   24.29160
    4895      592        6     0.00000   38.28517    0.60883   24.51504
    4896      592        6     0.00000   37.21578    0.35462   23.39886
    4897      593        5     0.00000   51.51456   24.23429    9.81958
    4898      593        6     0.00000   51.25694   25.18512    9.91764
    4899      593        6     0.00000   51.00957   23.76347   10.52909
    4900      594        5     0.00000   38.62560   19.10631   12.19075
    4901      594        6     0.00000   38.93974   19.01378   11.25622
    4902      594        6     0.00000   38.63454   18.18360   12.54932
    4903      595        5     0.00000   28.75896   23.62546   12.03407
    4904      595        6     0.00000   29.08362   22.72642   12.29170
    4905      595        6     0.00000   27.82995   23.47667   11.72624
    4906      596        5     0.00000   48.55375    0.24185   15.28273
    4907      596        6     0.00000   49.53508    0.15378   15.18783
    4908      596        6     0.00000   48.18809   -0.55783   14.82848
    4909      597        5     0.00000   42.17000    8.88636    1.79993
    4910      597        6     0.00000   41.75044    8.05829    1.45793
    4911      597        6     0.00000   42.23519    8.74730    2.77811
    4912      598        5     0.00000   33.22580   13.68574   14.49778
    4913      598        6     0.00000   34.04046   14.10372   14.87422
    4914      598        6     0.00000   32.49447   14.31429   14.72228
    4915      599        5     0.00000   38.84589    9.09456   14.88421
    4916      599        6     0.00000   38.81566    9.06091   15.87290
    4917      599        6     0.00000   37.90741    9.25229   14.61055
    4918      600        5     0.00000   28.43510   12.98806   24.48823
    4919      600        6     0.00000   27.82127   12.47124   23.90832
    4920      600        6     0.00000   27.84861   13.39079   25.17645
    4921      601        5     0.00000   43.96362   12.22177   25.40620
    4922      601        6     0.00000   43.05748   12.45889   25.72376
    4923      601        6     0.00000   44.24227   11.47283   25.98901
    4924      602        5     0.00000   47.89813   22.00140    3.72789
    4925      602        6     0.00000   48.25854   21.21565    4.20948
    4926      602        6     0.00000   48.40838   22.76926    4.08908
    4927      603        5     0.00000   41.99939   25.55105    9.20970
    4928      603        6     0.00000   42.65370   24.95011    8.77227
    4929      603        6     0.00000   41.78094   26.22612    8.51912
    4930      604        5     0.00000   26.25714    3.13273    3.38562
    4931      604        6     0.00000   26.14884    3.97578    3.89298
    4932      604        6     0.00000   25.75110    2.46028    3.90770
    4933      605        5     0.00000   34.45134   10.89765   13.44416
    4934      605        6     0.00000   34.16481   11.08140   12.51514
    4935      605        6     0.00000   35.13141   10.18367   13.35609
    4936      606        5     0.00000   40.75045   16.78141   11.48177
    4937      606        6     0.00000   40.63715   15.82190   11.26673
    4938      606        6     0.00000   41.63294   16.83635   11.92708
    4939      607        5     0.00000   47.71280   11.88292    1.49578
    4940      607        6     0.00000   47.33347   12.36635    2.27206
    4941      607        6     0.00000   46.95545   11.35506    1.13721
    4942      608        5     0.00000   46.29825    7.80987    7.02518
    4943      608        6     0.00000   46.32165    7.66897    8.00467
    4944      608        6     0.00000   46.36371    8.79146    6.91582
    4945      609        5     0.00000   28.66853   13.73674   12.96072
    4946      609        6     0.00000   28.59624   14.55246   12.40368
    4947      609        6     0.00000   28.94902   13.02802   12.32771
    4948      610        5     0.00000   43.69838   23.42278   16.01669
    4949      610        6     0.00000   43.99359   24.28266   15.62421
    4950      610        6     0.00000   42.71021   23.45144   15.96333
    4951      611        5     0.00000   38.06172   14.22780    5.97314
    4952      611        6     0.00000   38.60063   15.05429    6.05305
    4953      611        6     0.00000   37.33224   14.46571    5.34748
    4954      612        5     0.00000   50.39285    1.79967   12.49990
    4955      612        6     0.00000   49.42625    1.98342   12.61109
    4956      612        6     0.00000   50.42887    1.01077   11.90369
    4957      613        5     0.00000   30.65747   25.87465   23.71642
    4958      613        6     0.00000   30.82729   25.42250   22.85365
    4959      613        6     0.00000   31.20400   25.37177   24.37099
    4960      614        5     0.00000   37.08066   25.45405    8.62848
    4961      614        6     0.00000   37.86089   25.43459    9.23809
    4962      614        6     0.00000   36.51021   26.18380    8.97837
    4963      615        5     0.00000   34.17138   18.25353   21.20855
    4964      615        6     0.00000   33.38064   18.42125   20.63653
    4965      615        6     0.00000   34.29703   17.27220   21.17753
    4966      616        5     0.00000   42.46705    2.10251   14.51486
    4967      616        6     0.00000   42.23598    1.24578   14.07612
    4968      616        6     0.00000   41.70444    2.28731   15.11791
    4969      617        5     0.00000   37.95079   25.69642   20.39783
    4970      617        6     0.00000   37.86903   26.68248   20.37707
    4971      617        6     0.00000   37.50810   25.39464   19.56661
    4972      618        5     0.00000   33.56571   20.01902    6.46183
    4973      618        6     0.00000   33.12696   19.26588    5.99154
    4974      618        6     0.00000   34.51049   19.97854    6.16872
    4975      619        5     0.00000   40.72153    0.09385    1.22580
    4976      619        6     0.00000   40.28700    0.23817    0.34779
    4977      619        6     0.00000   41.19025    0.94558    1.41455
    4978      620        5     0.00000   36.22920   24.91515    1.25025
    4979      620        6     0.00000   36.04124   23.99901    0.92507
    4980      620        6     0.00000   37.19922   25.04001    1.09883
    4981      621        5     0.00000   45.26750   19.08975    4.83671
    4982      621        6     0.00000   44.56509   19.73170    5.10853
    4983      621        6     0.00000   45.20257   18.35631    5.49706
    4984      622        5     0.00000   27.05498   16.35712   14.42969
    4985      622        6     0.00000   27.33784   17.07925   13.81455
    4986      622        6     0.00000   27.89751   16.01538   14.82059
    4987      623        5     0.00000   36.12562    1.90955    1.60882
    4988      623        6     0.00000   36.74891    1.56255    0.92323
    4989      623        6     0.00000   36.48208    1.56965    2.46686
    4990      624        5     0.00000   28.16486   24.51557   24.96168
    4991      624        6     0.00000   27.70193   24.95589   24.20642
    4992      624        6     0.00000   27.93431   25.06604   25.75215
    4993      625        5     0.00000   28.61149    1.64378    5.00390
    4994      625        6     0.00000   28.41932    1.15930    4.16348
    4995      625        6     0.00000   28.38778    0.99947    5.72182
    4996      626        5     0.00000   51.74589   25.55867    5.21184
    4997      626        6     0.00000   50.97802   25.65673    4.59407
    4998      626        6     0.00000   51.47039   24.84391    5.83933
    4999      627        5     0.00000   38.88164    3.45949    1.20924
    5000      627        6     0.00000   39.81434    3.15166    1.32360
    5001      627        6     0.00000   38.52492    3.54045    2.12827
    5002      628        5     0.00000   50.25379   14.19731   14.52643
    5003      628        6     0.00000   50.64706   13.35084   14.85661
    5004      628        6     0.00000   50.57371   14.88500   15.16339
    5005      629        5     0.00000   51.20962    0.52628    0.62039
    5006      629        6     0.00000   52.05635    0.26104    0.18086
    5007      629        6     0.00000   51.46961    1.25130    1.24315
    5008      630        5     0.00000   29.42484    3.55833    2.17532
    5009      630        6     0.00000   29.87226    2.68163    2.28126
    5010      630        6     0.00000   29.75107    3.90034    1.30546
    5011      631        5     0.00000   44.36451    5.02809    8.43290
    5012      631        6     0.00000   44.19863    4.52625    9.26911
    5013      631        6     0.00000   45.27486    5.39743    8.54383
    5014      632        5     0.00000   40.04462    1.94084    4.02704
    5015      632        6     0.00000   40.30014    2.87642    3.84093
    5016      632        6     0.00000   39.68658    1.96081    4.94870
    5017      633        5     0.00000   51.79426   14.56639    5.56594
    5018      633        6     0.00000   52.23485   15.45124    5.51178
    5019      633        6     0.00000   51.90152   14.28747    6.50862
    5020      634        5     0.00000   39.72890    7.83432   11.07825
    5021      634        6     0.00000   40.51307    8.37270   11.35296
    5022      634        6     0.00000   39.10115    7.90372   11.84086
    5023      635        5     0.00000   39.68763   18.51457    1.58569
    5024      635        6     0.00000   40.10745   18.53060    2.48210
    5025      635        6     0.00000   38.99153   17.81373    1.65062
    5026      636        5     0.00000   29.99581   15.17784   16.76537
    5027      636        6     0.00000   30.87514   15.58399   16.56585
    5028      636        6     0.00000   29.81626   15.42679   17.70622
    5029      637        5     0.00000   45.55378   25.13018   26.07497
    5030      637        6     0.00000   46.49331   24.89438   26.28028
    5031      637        6     0.00000   45.34058   24.61284   25.25820
    5032      638        5     0.00000   26.49952   20.66807    1.75340
    5033      638        6     0.00000   27.28973   20.81528    1.17481
    5034      638        6     0.00000   26.08548   21.56318    1.84147
    5035      639        5     0.00000   26.77186    7.48206   14.02013
    5036      639        6     0.00000   25.94248    6.94290   14.05456
    5037      639        6     0.00000   26.51450    8.35903   14.40130
    5038      640        5     0.00000   51.57265   11.04381   12.27251
    5039      640        6     0.00000   50.95699   10.75017   12.98911
    5040      640        6     0.00000   51.19253   11.90001   11.95363
    5041      444        1     0.00000   34.58173    6.41951   51.23196
    5042      444        1     0.00000   34.61170   19.58238   38.10720
    5043      444        1     0.00000   47.73541    6.41083   38.08906
    5044      444        1     0.00000   47.68467   19.56240   51.24695
    5045      444        1     0.00000   44.32061   19.85578   51.19674
    5046      444        1     0.00000   44.32613    6.70893   38.09932
    5047      444        1     0.00000   31.15458   19.82029   38.10326
    5048      444        1     0.00000   31.16746    6.67187   51.26824
    5049      444        1     0.00000   44.32350    6.41267   27.59756
    5050      444        1     0.00000   44.36162   19.58764   40.74046
    5051      444        1     0.00000   31.16615    6.41582   40.74309
    5052      444        1     0.00000   31.19848   19.56766   27.58600
    5053      444        1     0.00000   34.55413   19.92859   27.59020
    5054      444        1     0.00000   34.55650    6.73391   40.76070
    5055      444        1     0.00000   47.71254   19.92334   40.75045
    5056      444        1     0.00000   47.68704    6.73680   27.62648
    5057      444        1     0.00000   51.24958    8.27070   32.74184
    5058      444        1     0.00000   51.26167   21.43226   45.87975
    5059      444        1     0.00000   38.11430    8.31355   45.85898
    5060      444        1     0.00000   38.12534   21.46985   32.65956
    5061      444        1     0.00000   51.24484   18.01063   46.16182
    5062      444        1     0.00000   51.26167    4.79228   32.96319
    5063      444        1     0.00000   38.14611   18.01930   32.97055
    5064      444        1     0.00000   38.11167    4.85669   46.10293
    5065      444        1     0.00000   27.59152   18.01957   32.64852
    5066      444        1     0.00000   27.60703    4.86458   45.82743
    5067      444        1     0.00000   40.75991   17.99118   45.79247
    5068      444        1     0.00000   40.80723    4.88955   32.73080
    5069      444        1     0.00000   27.63095    8.25782   46.15919
    5070      444        1     0.00000   27.62359   21.38416   32.99053
    5071      444        1     0.00000   40.75439    8.26965   32.99999
    5072      444        1     0.00000   40.78699   21.40492   46.06744
    5073      444        1     0.00000   32.71503   24.95905   34.59461
    5074      444        1     0.00000   32.72712   11.81010   47.73935
    5075      444        1     0.00000   45.82218   25.00426   47.67048
    5076      444        1     0.00000   45.79510   11.86504   34.59014
    5077      444        1     0.00000   46.18784   25.01083   44.31588
    5078      444        1     0.00000   46.12422   11.81115   31.22950
    5079      444        1     0.00000   33.00893   24.99559   31.17561
    5080      444        1     0.00000   32.98921   11.82771   44.30247
    5081      444        1     0.00000   32.70346    1.30362   44.27382
    5082      444        1     0.00000   32.70609   14.45624   31.13723
    5083      444        1     0.00000   45.89289    1.31729   31.13670
    5084      444        1     0.00000   45.87344   14.45282   44.27776
    5085      444        1     0.00000   46.15130    1.25788   34.60197
    5086      444        1     0.00000   46.13080   14.45940   47.70912
    5087      444        1     0.00000   33.01024    1.30756   47.69098
    5088      444        1     0.00000   33.03416   14.46755   34.53284
    5089      444        1     0.00000   32.72844    8.26071   27.59493
    5090      444        1     0.00000   32.74000   21.41807   40.75439
    5091      444        1     0.00000   45.87501    8.29199   40.71891
    5092      444        1     0.00000   45.80167   21.47143   27.52606
    5093      444        1     0.00000   46.10556   18.04244   27.62779
    5094      444        1     0.00000   46.17654    4.87483   40.73152
    5095      444        1     0.00000   32.99342   17.96489   40.74467
    5096      444        1     0.00000   33.03653    4.83066   27.61360
    5097      444        1     0.00000   32.71845   18.04796   51.24405
    5098      444        1     0.00000   32.71503    4.89612   38.11824
    5099      444        1     0.00000   45.88947   18.10895   38.06251
    5100      444        1     0.00000   45.84347    4.90848   51.25142
    5101      444        1     0.00000   46.18889    8.29147   51.27061
    5102      444        1     0.00000   46.25724   21.45329   38.13507
    5103      444        1     0.00000   33.04126    8.27622   38.12166
    5104      444        1     0.00000   33.05887   21.41202   51.23380
    5105      444        1     0.00000   34.58200   24.96246   46.12238
    5106      444        1     0.00000   34.57174   11.81799   32.99815
    5107      444        1     0.00000   47.69677   24.91120   32.94163
    5108      444        1     0.00000   47.71674   11.82666   46.14473
    5109      444        1     0.00000   44.27145   24.98560   32.67086
    5110      444        1     0.00000   44.29038   11.81773   45.84321
    5111      444        1     0.00000   31.15432   24.95773   45.85241
    5112      444        1     0.00000   31.17508   11.81589   32.68585
    5113      444        1     0.00000   44.31772    1.35067   46.17259
    5114      444        1     0.00000   44.30037   14.50303   33.02601
    5115      444        1     0.00000   31.16220    1.31965   33.04363
    5116      444        1     0.00000   31.13907   14.44257   46.17286
    5117      444        1     0.00000   34.57989    1.32701   32.75262
    5118      444        1     0.00000   34.56491   14.46203   45.88921
    5119      444        1     0.00000   47.68178    1.35330   45.84478
    5120      444        1     0.00000   47.65944   14.45966   32.68506
    5121      444        1     0.00000   51.26614    6.42634   44.29616
    5122      444        1     0.00000   51.25720   19.53033   31.14643
    5123      444        1     0.00000   38.16136    6.38428   31.11304
    5124      444        1     0.00000   38.10142   19.56687   44.27172
    5125      444        1     0.00000   51.25956   19.86997   34.50681
    5126      444        1     0.00000   51.27665    6.72103   47.70439
    5127      444        1     0.00000   38.14900   19.85998   47.67626
    5128      444        1     0.00000   38.13060    6.71446   34.54388
    5129      444        1     0.00000   27.61176    6.43239   34.58042
    5130      444        1     0.00000   27.59940   19.55846   47.72279
    5131      444        1     0.00000   40.74072    6.45946   47.70886
    5132      444        1     0.00000   40.79961   19.66440   34.48683
    5133      444        1     0.00000   27.60045   19.85157   44.30273
    5134      444        1     0.00000   27.60650    6.67976   31.11646
    5135      444        1     0.00000   40.73047   19.89547   31.07466
    5136      444        1     0.00000   40.75255    6.70157   44.24806
    5137      444        1     0.00000   44.24201   19.90940   27.53368
    5138      444        1     0.00000   44.32377    6.71656   40.72679
    5139      444        1     0.00000   31.17666   19.85604   40.74335
    5140      444        1     0.00000   31.16588    6.69868   27.59178
    5141      444        1     0.00000   34.61091    6.38375   27.59309
    5142      444        1     0.00000   34.55755   19.52849   40.74730
    5143      444        1     0.00000   47.73252    6.44606   40.74572
    5144      444        1     0.00000   47.67363   19.60420   27.61991
    5145      444        1     0.00000   34.62458   19.85262   51.24379
    5146      444        1     0.00000   34.60355    6.71209   38.12666
    5147      444        1     0.00000   47.80349   19.87628   38.11851
    5148      444        1     0.00000   47.73751    6.71104   51.26587
    5149      444        1     0.00000   44.30983    6.49837   51.22460
    5150      444        1     0.00000   44.32350   19.66861   38.09012
    5151      444        1     0.00000   31.15142    6.45999   38.11220
    5152      444        1     0.00000   31.15432   19.61104   51.23591
    5153      444        1     0.00000   27.59309   17.99827   46.15682
    5154      444        1     0.00000   27.62517    4.86931   33.01550
    5155      444        1     0.00000   40.79672   18.08397   32.94373
    5156      444        1     0.00000   40.74940    4.89533   46.14631
    5157      444        1     0.00000   27.60335    8.24073   32.68112
    5158      444        1     0.00000   27.61307   21.41228   45.86818
    5159      444        1     0.00000   40.75282    8.26597   45.81008
    5160      444        1     0.00000   40.72285   21.47301   32.62618
    5161      444        1     0.00000   51.27876    8.28936   46.14683
    5162      444        1     0.00000   51.27350   21.43673   32.94610
    5163      444        1     0.00000   38.12508    8.27412   32.98133
    5164      444        1     0.00000   38.14900   21.42832   46.11975
    5165      444        1     0.00000   51.24116   17.97041   32.71345
    5166      444        1     0.00000   51.26325    4.86063   45.85740
    5167      444        1     0.00000   38.12587   18.00090   45.83295
    5168      444        1     0.00000   38.15531    4.83329   32.69216
    5169      444        1     0.00000   46.12554    1.35409   44.27382
    5170      444        1     0.00000   46.09504   14.45703   31.12435
    5171      444        1     0.00000   33.01182    1.33306   31.19480
    5172      444        1     0.00000   32.99683   14.46071   44.33060
    5173      444        1     0.00000   32.72107    1.31571   34.60986
    5174      444        1     0.00000   32.70635   14.45177   47.73173
    5175      444        1     0.00000   45.87396    1.35225   47.74040
    5176      444        1     0.00000   45.86897   14.51013   34.58568
    5177      444        1     0.00000   46.17443   24.95984   34.54388
    5178      444        1     0.00000   46.14604   11.81957   47.70018
    5179      444        1     0.00000   33.02654   24.96062   47.69098
    5180      444        1     0.00000   33.00893   11.82219   34.56018
    5181      444        1     0.00000   32.71056   24.95721   44.28197
    5182      444        1     0.00000   32.73290   11.80879   31.12014
    5183      444        1     0.00000   45.83006   24.97903   31.10384
    5184      444        1     0.00000   45.86371   11.81957   44.29196
    5185      444        1     0.00000   46.13474   17.98960   51.26272
    5186      444        1     0.00000   46.16839    4.85327   38.10852
    5187      444        1     0.00000   33.05677   18.01299   38.10326
    5188      444        1     0.00000   33.02339    4.85327   51.24064
    5189      444        1     0.00000   32.73422    8.23311   51.25667
    5190      444        1     0.00000   32.71056   21.39204   38.11299
    5191      444        1     0.00000   45.87633    8.28516   38.08959
    5192      444        1     0.00000   45.88106   21.42438   51.20541
    5193      444        1     0.00000   46.14447    8.31802   27.60939
    5194      444        1     0.00000   46.14972   21.48457   40.76097
    5195      444        1     0.00000   32.99184    8.29646   40.75623
    5196      444        1     0.00000   32.98527   21.48747   27.58074
    5197      444        1     0.00000   32.76498   18.00931   27.59783
    5198      444        1     0.00000   32.73080    4.85380   40.74756
    5199      444        1     0.00000   45.90525   18.00879   40.70655
    5200      444        1     0.00000   45.88527    4.84381   27.59493
    5201      444        1     0.00000   44.37371    1.36750   32.74211
    5202      444        1     0.00000   44.29748   14.45808   45.82796
    5203      444        1     0.00000   31.14748    1.30414   45.84347
    5204      444        1     0.00000   31.15064   14.46176   32.70741
    5205      444        1     0.00000   34.56727    1.31071   46.12107
    5206      444        1     0.00000   34.59251   14.46597   32.96660
    5207      444        1     0.00000   47.71149    1.25420   33.03469
    5208      444        1     0.00000   47.70123   14.45992   46.15367
    5209      444        1     0.00000   34.57647   24.97429   32.73369
    5210      444        1     0.00000   34.55544   11.82509   45.86397
    5211      444        1     0.00000   47.74014   25.00899   45.88842
    5212      444        1     0.00000   47.69046   11.81930   32.79074
    5213      444        1     0.00000   44.26803   25.00032   46.09715
    5214      444        1     0.00000   44.23176   11.85900   33.02891
    5215      444        1     0.00000   31.15826   24.97403   33.02523
    5216      444        1     0.00000   31.16273   11.80458   46.17759
    5217      444        1     0.00000   27.60335   19.82108   34.55334
    5218      444        1     0.00000   27.62385    6.68370   47.71175
    5219      444        1     0.00000   40.78436   19.84999   47.63920
    5220      444        1     0.00000   40.74256    6.70972   34.57043
    5221      444        1     0.00000   27.61675    6.43396   44.27014
    5222      444        1     0.00000   27.60703   19.58764   31.08938
    5223      444        1     0.00000   40.80750    6.44895   31.16693
    5224      444        1     0.00000   40.73994   19.54190   44.21783
    5225      444        1     0.00000   51.25089   19.87102   44.31430
    5226      444        1     0.00000   51.24931    6.71892   31.16615
    5227      444        1     0.00000   38.11351   19.89731   31.10910
    5228      444        1     0.00000   38.11325    6.75047   44.29485
    5229      444        1     0.00000   51.26062    6.35326   34.52837
    5230      444        1     0.00000   51.24984   19.56976   47.72831
    5231      444        1     0.00000   38.10641    6.41977   47.66653
    5232      444        1     0.00000   38.13454   19.59369   34.52548
    5233      444        2     0.00000   33.65824    7.31066   26.29079
    5234      444        2     0.00000   33.62801   20.45356   39.43106
    5235      444        2     0.00000   46.80561    7.35194   39.40582
    5236      444        2     0.00000   46.74567   20.48195   26.26924
    5237      444        2     0.00000   45.21466   18.94911   26.27292
    5238      444        2     0.00000   45.29773    5.83749   39.41660
    5239      444        2     0.00000   32.11829   18.93675   39.42370
    5240      444        2     0.00000   32.12618    5.77440   26.29710
    5241      444        2     0.00000   45.22518    7.38217   26.29079
    5242      444        2     0.00000   45.30877   20.51219   39.43054
    5243      444        2     0.00000   32.11251    7.33616   39.43316
    5244      444        2     0.00000   32.13065   20.48879   26.26529
    5245      444        2     0.00000   33.63405   18.99222   26.27449
    5246      444        2     0.00000   33.62144    5.82750   39.43842
    5247      444        2     0.00000   46.79141   19.01351   39.41213
    5248      444        2     0.00000   46.74988    5.83486   26.29211
    5249      444        2     0.00000   26.28711    7.29410   33.60330
    5250      444        2     0.00000   26.28737   20.46750   46.77432
    5251      444        2     0.00000   39.42870    7.33800   46.73542
    5252      444        2     0.00000   39.43343   20.52822   33.57596
    5253      444        2     0.00000   26.27870   18.96330   45.26487
    5254      444        2     0.00000   26.28580    5.78229   32.09174
    5255      444        2     0.00000   39.43790   18.98775   32.05205
    5256      444        2     0.00000   39.43132    5.82987   45.22728
    5257      444        2     0.00000   26.27791   18.94648   33.57780
    5258      444        2     0.00000   26.29894    5.81804   46.73883
    5259      444        2     0.00000   39.45419   18.95568   46.70466
    5260      444        2     0.00000   39.44815    5.79780   33.60409
    5261      444        2     0.00000   26.30420    7.33432   45.23490
    5262      444        2     0.00000   26.29526   20.45777   32.07098
    5263      444        2     0.00000   39.44578    7.32828   32.06992
    5264      444        2     0.00000   39.44394   20.46040   45.19495
    5265      444        2     0.00000   33.64956   -0.00237   33.67349
    5266      444        2     0.00000   33.61355   13.13764   46.77958
    5267      444        2     0.00000   46.75119    0.03523   46.75645
    5268      444        2     0.00000   46.72175   13.16340   33.63037
    5269      444        2     0.00000   45.24910    0.03523   45.23832
    5270      444        2     0.00000   45.21256   13.15762   32.12644
    5271      444        2     0.00000   32.13249    0.01025   32.15457
    5272      444        2     0.00000   32.10094   13.13422   45.27355
    5273      444        2     0.00000   33.61539   -0.01052   45.22491
    5274      444        2     0.00000   33.63090   13.13738   32.07518
    5275      444        2     0.00000   46.76249   -0.02918   32.07466
    5276      444        2     0.00000   46.75645   13.13948   45.24884
    5277      444        2     0.00000   45.26224   -0.01919   33.59173
    5278      444        2     0.00000   45.24253   13.13843   46.74436
    5279      444        2     0.00000   32.11645   -0.01130   46.73726
    5280      444        2     0.00000   32.12802   13.14185   33.58568
    5281      444        3     0.00000   34.78757    4.64481   49.62551
    5282      444        3     0.00000   34.10855    5.32908   50.75825
    5283      444        3     0.00000   34.83804   17.79060   36.50680
    5284      444        3     0.00000   34.14903   18.48513   37.63297
    5285      444        3     0.00000   44.11609   21.62837   49.58240
    5286      444        3     0.00000   44.79800   20.94567   50.71830
    5287      444        3     0.00000   44.06536    8.50230   36.52493
    5288      444        3     0.00000   44.77960    7.80908   37.62929
    5289      444        3     0.00000   30.94112    8.46470   49.68387
    5290      444        3     0.00000   31.63565    7.76597   50.79558
    5291      444        3     0.00000   44.11451    4.65217   29.20638
    5292      444        3     0.00000   44.79484    5.31936   28.06891
    5293      444        3     0.00000   44.11557   17.78008   42.30091
    5294      444        3     0.00000   44.81771   18.48039   41.19156
    5295      444        3     0.00000   30.91799    4.61537   42.30959
    5296      444        3     0.00000   31.62829    5.31620   41.20733
    5297      444        3     0.00000   34.78099   21.70986   29.17116
    5298      444        3     0.00000   34.08200   21.02349   28.05445
    5299      444        3     0.00000   34.77311    8.51123   42.35322
    5300      444        3     0.00000   34.08384    7.82512   41.23152
    5301      444        3     0.00000   49.63708    8.49467   30.96925
    5302      444        3     0.00000   50.77114    7.80514   31.64748
    5303      444        3     0.00000   36.51074    8.52017   44.07955
    5304      444        3     0.00000   37.63954    7.84115   44.76724
    5305      444        3     0.00000   49.66310   17.77430   47.95439
    5306      444        3     0.00000   50.77850   18.47435   47.25986
    5307      444        3     0.00000   49.67072    4.57462   34.76733
    5308      444        3     0.00000   50.79033    5.25942   34.06018
    5309      444        3     0.00000   36.55622   17.79743   34.75918
    5310      444        3     0.00000   37.67424   18.49117   34.06360
    5311      444        3     0.00000   29.20218   17.79822   30.88933
    5312      444        3     0.00000   28.07232   18.49117   31.56099
    5313      444        3     0.00000   42.34665   17.76273   44.00016
    5314      444        3     0.00000   41.21943   18.45174   44.68917
    5315      444        3     0.00000   42.42473    4.69108   30.97635
    5316      444        3     0.00000   41.28962    5.36720   31.64853
    5317      444        3     0.00000   29.21453    8.46970   47.95097
    5318      444        3     0.00000   28.09808    7.78017   47.25171
    5319      444        3     0.00000   42.32825    8.49599   34.79887
    5320      444        3     0.00000   41.21575    7.80225   34.10014
    5321      444        3     0.00000   30.92798   23.35995   34.79782
    5322      444        3     0.00000   31.62224   24.49060   34.11617
    5323      444        3     0.00000   30.94585   10.20549   47.95912
    5324      444        3     0.00000   31.63486   11.33271   47.27038
    5325      444        3     0.00000   47.95780   23.41411   44.09900
    5326      444        3     0.00000   47.27695   24.53897   44.79038
    5327      444        3     0.00000   47.87789   10.19471   31.02340
    5328      444        3     0.00000   47.21044   11.33271   31.70715
    5329      444        3     0.00000   34.79913   23.42252   30.91772
    5330      444        3     0.00000   34.10592   24.52293   31.63276
    5331      444        3     0.00000   30.91168    2.88851   44.04748
    5332      444        3     0.00000   31.60831    1.77233   44.74437
    5333      444        3     0.00000   30.92929   16.05980   30.91667
    5334      444        3     0.00000   31.61514   14.93258   31.61041
    5335      444        3     0.00000   47.94729    2.83462   34.82253
    5336      444        3     0.00000   47.24961    1.71844   34.13589
    5337      444        3     0.00000   47.92731   16.04193   47.94361
    5338      444        3     0.00000   47.23016   14.92811   47.24698
    5339      444        3     0.00000   34.81938   16.06664   34.75655
    5340      444        3     0.00000   34.12616   14.94152   34.06202
    5341      444        3     0.00000   30.92009    8.50046   29.15906
    5342      444        3     0.00000   31.62724    7.79804   28.05497
    5343      444        3     0.00000   30.94165   21.63100   42.34350
    5344      444        3     0.00000   31.64248   20.94725   41.22100
    5345      444        3     0.00000   47.88735   17.81925   29.21690
    5346      444        3     0.00000   47.19835   18.51588   28.09914
    5347      444        3     0.00000   47.94124    4.66006   42.33850
    5348      444        3     0.00000   47.26223    5.34959   41.21286
    5349      444        3     0.00000   34.83068    4.60564   29.19298
    5350      444        3     0.00000   34.13773    5.29517   28.07259
    5351      444        3     0.00000   30.93770   17.80979   49.65153
    5352      444        3     0.00000   31.62513   18.51404   50.76877
    5353      444        3     0.00000   30.92877    4.65427   36.54570
    5354      444        3     0.00000   31.61935    5.36089   37.65084
    5355      444        3     0.00000   47.95570    8.50492   49.66836
    5356      444        3     0.00000   47.27511    7.81145   50.79611
    5357      444        3     0.00000   48.02510   21.67779   36.53203
    5358      444        3     0.00000   47.34687   20.98116   37.65926
    5359      444        3     0.00000   34.82043    8.49730   36.52441
    5360      444        3     0.00000   34.13563    7.80619   37.65190
    5361      444        3     0.00000   34.82332   23.37862   47.91680
    5362      444        3     0.00000   34.12169   24.49323   47.22148
    5363      444        3     0.00000   34.79992   10.22731   34.78625
    5364      444        3     0.00000   34.10382   11.34875   34.09435
    5365      444        3     0.00000   44.01331   23.43540   30.83860
    5366      444        3     0.00000   44.72597   24.52608   31.56230
    5367      444        3     0.00000   44.08113   10.22862   44.05063
    5368      444        3     0.00000   44.76645   11.34743   44.75173
    5369      444        3     0.00000   30.92693   10.22599   30.89748
    5370      444        3     0.00000   31.63538   11.34165   31.59043
    5371      444        3     0.00000   44.07508    2.94793   47.94703
    5372      444        3     0.00000   44.77933    1.82333   47.26775
    5373      444        3     0.00000   44.11346   16.14761   34.75944
    5374      444        3     0.00000   44.78354   14.99278   34.10513
    5375      444        3     0.00000   30.94375    2.91796   34.82200
    5376      444        3     0.00000   31.63013    1.79073   34.13747
    5377      444        3     0.00000   34.81464    2.89903   30.95111
    5378      444        3     0.00000   34.11170    1.79546   31.65641
    5379      444        3     0.00000   34.77179   16.05796   44.10742
    5380      444        3     0.00000   34.08962   14.93494   44.79879
    5381      444        3     0.00000   49.67020    4.64691   44.07245
    5382      444        3     0.00000   50.79295    5.33224   44.76435
    5383      444        3     0.00000   36.58802    4.58514   30.89669
    5384      444        3     0.00000   37.69895    5.28781   31.58623
    5385      444        3     0.00000   49.69806   21.65729   34.74551
    5386      444        3     0.00000   50.80110   20.96670   34.04046
    5387      444        3     0.00000   36.56910   21.65650   47.91758
    5388      444        3     0.00000   37.68318   20.96066   47.21675
    5389      444        3     0.00000   36.53571    8.49546   34.77390
    5390      444        3     0.00000   37.65637    7.80619   34.07622
    5391      444        3     0.00000   29.21006    4.64954   34.80728
    5392      444        3     0.00000   28.08941    5.33907   34.11249
    5393      444        3     0.00000   42.33035    4.67320   47.93625
    5394      444        3     0.00000   41.21312    5.36405   47.24251
    5395      444        3     0.00000   29.20454   21.62837   44.07797
    5396      444        3     0.00000   28.08021   20.94173   44.77197
    5397      444        3     0.00000   29.18982    8.48836   30.89275
    5398      444        3     0.00000   28.07416    7.77938   31.58491
    5399      444        3     0.00000   42.27094   21.71696   30.81415
    5400      444        3     0.00000   41.18210   21.00429   31.52682
    5401      444        3     0.00000   43.98202   21.73825   29.06758
    5402      444        3     0.00000   44.69626   21.01875   27.98032
    5403      444        3     0.00000   44.08560    8.50966   42.30564
    5404      444        3     0.00000   44.78275    7.81802   41.19025
    5405      444        3     0.00000   34.77022   17.76536   42.35375
    5406      444        3     0.00000   34.08437   18.43807   41.22100
    5407      444        3     0.00000   34.84303   21.64756   49.65285
    5408      444        3     0.00000   34.15587   20.94672   50.76956
    5409      444        3     0.00000   44.06720    4.69923   49.65679
    5410      444        3     0.00000   44.76225    5.39375   50.76903
    5411      444        3     0.00000   44.12398   17.91258   36.45632
    5412      444        3     0.00000   44.79931   18.58739   37.59354
    5413      444        3     0.00000   29.18851   17.77483   47.93835
    5414      444        3     0.00000   28.06628   18.46357   47.25119
    5415      444        3     0.00000   42.40922   17.90390   34.71159
    5416      444        3     0.00000   41.27831   18.57372   34.02259
    5417      444        3     0.00000   42.34902    8.49362   44.03197
    5418      444        3     0.00000   41.22547    7.79647   44.71677
    5419      444        3     0.00000   49.68177    8.50624   47.93231
    5420      444        3     0.00000   50.80610    7.81750   47.24014
    5421      444        3     0.00000   49.63813   17.77167   30.92850
    5422      444        3     0.00000   50.77298   18.44280   31.61882
    5423      444        3     0.00000   36.50312   17.78639   44.08244
    5424      444        3     0.00000   37.63533   18.47435   44.75016
    5425      444        3     0.00000   47.92705    2.92847   44.06299
    5426      444        3     0.00000   47.22095    1.81965   44.74779
    5427      444        3     0.00000   47.88551   16.05744   30.91536
    5428      444        3     0.00000   47.19072   14.92969   31.59254
    5429      444        3     0.00000   30.92824   16.05271   47.94151
    5430      444        3     0.00000   31.61251   14.92180   47.26144
    5431      444        3     0.00000   47.95754   23.36994   34.75918
    5432      444        3     0.00000   47.25197   24.46957   34.05703
    5433      444        3     0.00000   47.93888   10.23151   47.92810
    5434      444        3     0.00000   47.24488   11.35217   47.23620
    5435      444        3     0.00000   30.92298   23.37205   44.06457
    5436      444        3     0.00000   31.61698   24.48902   44.75462
    5437      444        3     0.00000   47.91627   17.77483   49.66967
    5438      444        3     0.00000   47.22253   18.46304   50.78691
    5439      444        3     0.00000   47.94729    4.60354   36.51573
    5440      444        3     0.00000   47.26170    5.31252   37.63008
    5441      444        3     0.00000   30.93061   21.61365   36.51941
    5442      444        3     0.00000   31.61987   20.91965   37.63849
    5443      444        3     0.00000   47.88026    8.49152   29.26054
    5444      444        3     0.00000   47.21570    7.82801   28.10466
    5445      444        3     0.00000   47.94151   21.69146   42.35717
    5446      444        3     0.00000   47.24383   21.01323   41.23047
    5447      444        3     0.00000   30.95742   17.79139   29.18062
    5448      444        3     0.00000   31.66562   18.47645   28.06338
    5449      444        3     0.00000   44.14317    2.95213   30.96399
    5450      444        3     0.00000   44.82902    1.82307   31.63644
    5451      444        3     0.00000   44.09217   16.04272   44.02908
    5452      444        3     0.00000   44.77539   14.92496   44.73465
    5453      444        3     0.00000   34.79151    2.90297   47.90365
    5454      444        3     0.00000   34.10172    1.78022   47.21754
    5455      444        3     0.00000   34.77810   10.24650   44.07508
    5456      444        3     0.00000   34.08594   11.36005   44.76777
    5457      444        3     0.00000   44.06904   23.39150   47.87789
    5458      444        3     0.00000   44.73701   24.52687   47.19204
    5459      444        3     0.00000   44.02382   10.26201   34.81964
    5460      444        3     0.00000   44.70231   11.39107   34.12590
    5461      444        3     0.00000   29.20428   21.61023   34.78257
    5462      444        3     0.00000   28.08494   20.91465   34.08752
    5463      444        3     0.00000   42.37189   21.63336   47.85922
    5464      444        3     0.00000   41.25676   20.94015   47.16444
    5465      444        3     0.00000   29.18272    4.62457   44.03565
    5466      444        3     0.00000   28.07574    5.33092   44.73202
    5467      444        3     0.00000   49.66810   21.66412   44.09716
    5468      444        3     0.00000   50.78612   20.96670   44.78538
    5469      444        3     0.00000   36.53413   21.69619   30.88197
    5470      444        3     0.00000   37.65137   20.99746   31.57019
    5471      444        3     0.00000   36.51547    4.63955   47.88893
    5472      444        3     0.00000   37.63691    5.32619   47.19624
    5473      444        3     0.00000   35.93530    5.20763   49.03876
    5474      444        4     0.00000   36.34802    6.12114   49.44885
    5475      444        3     0.00000   35.98998   18.35027   35.92373
    5476      444        4     0.00000   36.41374   19.25326   36.34591
    5477      444        3     0.00000   42.97046   21.05845   48.99697
    5478      444        4     0.00000   42.57404   20.13443   49.39864
    5479      444        3     0.00000   42.91868    7.92843   35.94371
    5480      444        4     0.00000   42.51253    7.01046   36.35380
    5481      444        3     0.00000   29.78261   21.04767   35.93503
    5482      444        4     0.00000   29.36516   20.13942   36.35249
    5483      444        3     0.00000   42.98335    5.23602   29.80732
    5484      444        4     0.00000   42.55932    6.14006   29.38882
    5485      444        3     0.00000   42.94312   18.32871   42.85690
    5486      444        4     0.00000   42.52304   19.23144   42.43051
    5487      444        3     0.00000   29.79576   18.35553   29.74213
    5488      444        4     0.00000   29.38067   19.26141   29.31600
    5489      444        3     0.00000   35.94660   21.14756   29.72793
    5490      444        4     0.00000   36.37141   20.25272   29.28972
    5491      444        3     0.00000   35.92872    7.95235   42.93051
    5492      444        4     0.00000   36.35065    7.04726   42.51069
    5493      444        3     0.00000   49.06269    9.64372   31.54285
    5494      444        4     0.00000   49.51379   10.08325   32.42323
    5495      444        3     0.00000   49.09528   22.81579   44.66603
    5496      444        4     0.00000   49.50669   23.21984   45.58243
    5497      444        3     0.00000   35.93635    9.67684   44.63265
    5498      444        4     0.00000   36.36300   10.10533   45.53091
    5499      444        3     0.00000   49.09370   16.61264   47.39735
    5500      444        4     0.00000   49.52009   16.19229   46.49515
    5501      444        3     0.00000   49.09844    3.40218   34.24393
    5502      444        4     0.00000   49.51563    2.95923   33.34857
    5503      444        3     0.00000   35.94686    3.47579   47.34214
    5504      444        4     0.00000   36.37404    3.04598   46.44467
    5505      444        3     0.00000   29.77131   16.64418   31.46399
    5506      444        4     0.00000   29.34045   16.22989   32.36882
    5507      444        3     0.00000   29.75843    3.47184   44.60399
    5508      444        4     0.00000   29.33993    3.06070   45.51461
    5509      444        3     0.00000   29.79129    9.62899   47.39814
    5510      444        4     0.00000   29.36858   10.05460   46.49699
    5511      444        3     0.00000   29.77394   22.77925   34.23473
    5512      444        4     0.00000   29.34571   23.21274   33.33989
    5513      444        3     0.00000   31.48055   22.78241   35.95685
    5514      444        4     0.00000   32.37223   23.21537   36.39323
    5515      444        3     0.00000   44.65526   22.79950   49.01616
    5516      444        4     0.00000   45.56350   23.22063   49.43098
    5517      444        3     0.00000   44.59374    9.68262   35.96947
    5518      444        4     0.00000   45.48648   10.11742   36.40086
    5519      444        3     0.00000   47.39945   22.85365   42.93445
    5520      444        4     0.00000   46.51013   23.29581   42.50307
    5521      444        3     0.00000   47.27958    9.59219   29.89933
    5522      444        4     0.00000   46.32296    9.96127   29.54471
    5523      444        3     0.00000   34.22606   22.85733   29.76474
    5524      444        4     0.00000   33.31571   23.28188   29.35912
    5525      444        3     0.00000   31.47187    3.46001   42.89002
    5526      444        4     0.00000   32.37670    3.03757   42.47231
    5527      444        3     0.00000   44.66945    3.49734   29.77998
    5528      444        4     0.00000   45.54247    3.04782   29.32783
    5529      444        3     0.00000   47.39130    3.43057   35.97079
    5530      444        4     0.00000   46.49041    3.01549   36.40795
    5531      444        3     0.00000   34.23079    3.48551   49.05506
    5532      444        4     0.00000   33.32938    3.06385   49.48040
    5533      444        3     0.00000   31.47450    9.65923   29.73240
    5534      444        4     0.00000   32.37092   10.08877   29.30339
    5535      444        3     0.00000   44.64185    9.66369   42.88976
    5536      444        4     0.00000   45.54168   10.09561   42.46758
    5537      444        3     0.00000   47.32059   16.66180   29.78077
    5538      444        4     0.00000   46.40550   16.25775   29.36569
    5539      444        3     0.00000   34.21002   16.62236   42.94812
    5540      444        4     0.00000   33.30493   16.19939   42.53409
    5541      444        3     0.00000   34.24420    3.48341   29.80575
    5542      444        4     0.00000   33.31308    3.09146   29.41774
    5543      444        3     0.00000   31.50263   16.65496   49.07741
    5544      444        4     0.00000   32.41824   16.24855   49.48934
    5545      444        3     0.00000   31.49028    3.49208   35.98393
    5546      444        4     0.00000   32.38433    3.06280   36.42294
    5547      444        3     0.00000   44.66603   16.73435   35.91059
    5548      444        4     0.00000   45.54431   16.28982   36.36090
    5549      444        3     0.00000   47.38657    9.65739   49.08818
    5550      444        4     0.00000   46.48332   10.08404   49.51089
    5551      444        3     0.00000   34.25550    9.65397   35.95159
    5552      444        4     0.00000   33.36250   10.08299   36.38929
    5553      444        3     0.00000   35.98130   22.80659   47.35713
    5554      444        4     0.00000   36.39533   23.22589   46.45046
    5555      444        3     0.00000   35.95317    9.65081   34.21975
    5556      444        4     0.00000   36.37325   10.07720   33.31728
    5557      444        3     0.00000   42.86190   22.85470   31.39354
    5558      444        4     0.00000   42.45785   23.25612   32.31440
    5559      444        3     0.00000   42.92472    9.64582   44.60163
    5560      444        4     0.00000   42.49939   10.06406   45.50541
    5561      444        3     0.00000   29.77052    9.64345   31.45873
    5562      444        4     0.00000   29.35281   10.05801   32.36855
    5563      444        3     0.00000   42.91316    3.51364   47.38447
    5564      444        4     0.00000   42.49097    3.08147   46.48542
    5565      444        3     0.00000   42.97073   16.72857   34.18084
    5566      444        4     0.00000   42.54223   16.28772   33.28968
    5567      444        3     0.00000   29.79996    3.50155   34.24919
    5568      444        4     0.00000   29.39566    3.08830   33.33700
    5569      444        3     0.00000   35.99576    3.44976   31.48107
    5570      444        4     0.00000   36.41663    3.03494   32.39011
    5571      444        3     0.00000   35.92688   16.63998   44.65920
    5572      444        4     0.00000   36.35143   16.22805   45.56692
    5573      444        3     0.00000   49.09476    5.21420   42.92078
    5574      444        4     0.00000   49.51720    6.11930   42.50412
    5575      444        3     0.00000   49.06137   18.35079   29.78182
    5576      444        4     0.00000   49.50196   19.24563   29.35754
    5577      444        3     0.00000   36.01363    5.13692   29.73714
    5578      444        4     0.00000   36.44896    6.02545   29.29786
    5579      444        3     0.00000   49.17309   21.12548   35.93845
    5580      444        4     0.00000   49.62945   20.24563   36.37588
    5581      444        3     0.00000   49.11027    7.94972   49.09108
    5582      444        4     0.00000   49.53271    7.05015   49.51904
    5583      444        3     0.00000   35.97184    7.93921   35.93793
    5584      444        4     0.00000   36.40401    7.04174   36.36353
    5585      444        3     0.00000   29.77131    5.20422   35.96973
    5586      444        4     0.00000   29.33809    6.10037   36.39507
    5587      444        3     0.00000   29.77157   18.34948   49.08240
    5588      444        4     0.00000   29.34518   19.25247   49.50038
    5589      444        3     0.00000   29.79339   21.06081   42.92998
    5590      444        4     0.00000   29.37936   20.14941   42.51595
    5591      444        3     0.00000   29.76079    7.94263   29.72899
    5592      444        4     0.00000   29.33335    7.04568   29.29760
    5593      444        3     0.00000   42.81458   21.18910   29.62857
    5594      444        4     0.00000   42.37662   20.29952   29.18824
    5595      444        3     0.00000   42.92630    7.94762   42.87188
    5596      444        4     0.00000   42.50228    7.05173   42.43656
    5597      444        3     0.00000   35.92610   18.33160   42.92183
    5598      444        4     0.00000   36.35222   19.22723   42.48677
    5599      444        3     0.00000   36.00496   21.10156   49.08056
    5600      444        4     0.00000   36.44160   20.21093   49.51326
    5601      444        3     0.00000   42.90290    5.24312   49.08634
    5602      444        4     0.00000   42.46679    6.14112   49.50669
    5603      444        3     0.00000   42.99386   18.48881   35.85039
    5604      444        4     0.00000   42.59402   19.41756   36.23918
    5605      444        3     0.00000   29.76106   16.61264   47.38920
    5606      444        4     0.00000   29.32678   16.17179   46.49961
    5607      444        3     0.00000   29.76631   22.79766   44.62266
    5608      444        4     0.00000   29.33151   23.23351   45.51408
    5609      444        3     0.00000   49.09765    9.65739   47.37027
    5610      444        4     0.00000   49.52167   10.08036   46.46781
    5611      444        3     0.00000   49.09029   22.78346   34.17085
    5612      444        4     0.00000   49.46358   23.16674   33.22869
    5613      444        3     0.00000   49.04902   16.61790   31.47818
    5614      444        4     0.00000   49.46883   16.18493   32.37802
    5615      444        3     0.00000   49.09055    3.48946   44.62345
    5616      444        4     0.00000   49.51720    3.05281   45.51934
    5617      444        3     0.00000   47.37526    3.50733   42.90895
    5618      444        4     0.00000   46.47122    3.08699   42.48519
    5619      444        3     0.00000   44.62870    3.53967   49.09397
    5620      444        4     0.00000   45.52959    3.12511   49.52535
    5621      444        3     0.00000   47.43914   22.81685   35.94634
    5622      444        4     0.00000   46.53510   23.22904   36.37693
    5623      444        3     0.00000   34.27285   22.80055   49.07662
    5624      444        4     0.00000   33.36749   23.21852   49.50117
    5625      444        3     0.00000   31.48502   22.79634   42.91105
    5626      444        4     0.00000   32.38170   23.22667   42.48388
    5627      444        3     0.00000   44.55746   22.87731   29.66484
    5628      444        4     0.00000   45.47544   23.28240   29.25817
    5629      444        3     0.00000   47.35739   16.62342   49.08845
    5630      444        4     0.00000   46.44257   16.21017   49.49512
    5631      444        3     0.00000   34.28021   16.62946   35.93135
    5632      444        4     0.00000   33.39641   16.18861   36.37273
    5633      444        3     0.00000   31.50158    9.62453   49.11395
    5634      444        4     0.00000   32.40352   10.04566   49.54112
    5635      444        3     0.00000   34.21686    9.66869   42.92341
    5636      444        4     0.00000   33.31282   10.08956   42.49991
    5637      444        3     0.00000   31.49895   16.63183   29.76237
    5638      444        4     0.00000   32.39905   16.20307   29.34282
    5639      444        3     0.00000   44.67287   16.62710   42.88661
    5640      444        4     0.00000   45.58953   16.21359   42.48335
    5641      444        3     0.00000   43.00700    3.54387   31.54338
    5642      444        4     0.00000   42.59376    3.12826   32.45662
    5643      444        3     0.00000   42.91894   16.60686   44.56246
    5644      444        4     0.00000   42.47914   16.17521   45.45152
    5645      444        3     0.00000   35.96474   16.65444   34.18847
    5646      444        4     0.00000   36.36431   16.25302   33.26681
    5647      444        3     0.00000   35.96894   22.85181   31.45058
    5648      444        4     0.00000   36.41242   23.27688   32.34227
    5649      444        3     0.00000   42.91657   22.81159   47.32243
    5650      444        4     0.00000   42.48072   23.24218   46.42943
    5651      444        3     0.00000   42.88135    9.66948   34.25576
    5652      444        4     0.00000   42.45312   10.09271   33.35593
    5653      444        3     0.00000   29.78366    7.91003   49.10869
    5654      444        4     0.00000   29.35675    7.00888   49.53245
    5655      444        3     0.00000   29.75238    5.16925   42.87057
    5656      444        4     0.00000   29.32152    6.06304   42.43472
    5657      444        3     0.00000   49.09397   21.12075   42.93182
    5658      444        4     0.00000   49.51799   20.22538   42.49544
    5659      444        3     0.00000   49.06242    7.95551   29.80259
    5660      444        4     0.00000   49.50774    7.08459   29.33993
    5661      444        3     0.00000   49.09370    5.15716   35.91321
    5662      444        4     0.00000   49.50984    6.07435   36.30858
    5663      444        3     0.00000   49.07609   18.33476   49.10317
    5664      444        4     0.00000   49.48907   19.24195   49.52746
    5665      641        5     0.00000   44.11872   11.90001   39.78095
    5666      641        6     0.00000   43.90158   11.51909   40.66870
    5667      641        6     0.00000   43.55668   11.38766   39.14689
    5668      642        5     0.00000   41.14477   24.90016   49.99065
    5669      642        6     0.00000   40.75991   23.98876   49.95095
    5670      642        6     0.00000   41.70444   24.96851   49.17677
    5671      643        5     0.00000   45.20231   15.12869   39.35088
    5672      643        6     0.00000   45.78853   14.90471   38.58512
    5673      643        6     0.00000   45.81771   15.19046   40.12375
    5674      644        5     0.00000   43.34033   11.82403   29.60964
    5675      644        6     0.00000   43.50174   11.71941   28.63830
    5676      644        6     0.00000   42.61006   12.48991   29.67036
    5677      645        5     0.00000   40.04830   11.75805   31.10673
    5678      645        6     0.00000   39.62480   12.07298   30.26920
    5679      645        6     0.00000   39.29726   11.66552   31.74501
    5680      646        5     0.00000   27.36123   15.61186   35.28704
    5681      646        6     0.00000   27.16145   15.06507   34.48710
    5682      646        6     0.00000   28.34808   15.58715   35.36432
    5683      647        5     0.00000   51.97118   24.75821   40.13637
    5684      647        6     0.00000   52.12339   25.54395   40.71943
    5685      647        6     0.00000   52.24457   25.06157   39.23416
    5686      648        5     0.00000   50.33712   13.35767   29.35517
    5687      648        6     0.00000   50.82371   12.95862   28.59125
    5688      648        6     0.00000   50.63523   12.83612   30.14223
    5689      649        5     0.00000   39.05304   15.75776   40.92264
    5690      649        6     0.00000   38.64952   15.06192   41.50044
    5691      649        6     0.00000   38.36377   16.46674   40.87006
    5692      650        5     0.00000   28.86753   11.76804   27.47322
    5693      650        6     0.00000   28.27053   11.07825   27.08916
    5694      650        6     0.00000   28.63488   11.79275   28.43510
    5695      651        5     0.00000   39.41818   15.09136   26.60572
    5696      651        6     0.00000   39.92107   15.78404   26.10835
    5697      651        6     0.00000   40.11665   14.53248   27.03001
    5698      652        5     0.00000   39.31960    2.28994   48.42783
    5699      652        6     0.00000   38.62376    2.79204   48.92152
    5700      652        6     0.00000   39.55645    2.87590   47.66759
    5701      653        5     0.00000   49.72672    1.14852   48.66022
    5702      653        6     0.00000   48.88656    1.29836   49.16232
    5703      653        6     0.00000   49.47199    0.53154   47.92889
    5704      654        5     0.00000   47.55192   19.68990   45.94363
    5705      654        6     0.00000   47.69545   18.79007   45.55614
    5706      654        6     0.00000   47.17495   19.51666   46.84267
    5707      655        5     0.00000   38.15662   25.32129   30.31126
    5708      655        6     0.00000   38.83827   25.12151   29.62121
    5709      655        6     0.00000   38.46446   24.82866   31.11331
    5710      656        5     0.00000   32.49579   12.87949   37.43082
    5711      656        6     0.00000   31.76840   12.45416   36.91242
    5712      656        6     0.00000   32.17350   12.86057   38.36640
    5713      657        5     0.00000   35.09908   23.61863   40.62190
    5714      657        6     0.00000   34.55413   24.16252   41.24387
    5715      657        6     0.00000   36.01837   23.97272   40.72232
    5716      658        5     0.00000   31.67718    7.53017   44.27356
    5717      658        6     0.00000   31.97739    8.25335   44.87923
    5718      658        6     0.00000   31.59779    7.96366   43.38739
    5719      659        5     0.00000   46.86423    7.40294   45.23937
    5720      659        6     0.00000   46.14289    7.12875   44.61845
    5721      659        6     0.00000   46.71649    6.85431   46.05062
    5722      660        5     0.00000   33.25393    7.39189   31.59070
    5723      660        6     0.00000   33.39720    7.01913   30.68665
    5724      660        6     0.00000   33.81754    8.20498   31.61830
    5725      661        5     0.00000   42.36952   11.73965   48.85633
    5726      661        6     0.00000   41.91711   12.53328   49.23829
    5727      661        6     0.00000   42.66500   12.03223   47.95859
    5728      662        5     0.00000   34.29414    1.32360   51.59947
    5729      662        6     0.00000   34.43662    0.85856   50.73696
    5730      662        6     0.00000   33.31019    1.39457   51.68385
    5731      663        5     0.00000   26.37097    3.58593   41.33457
    5732      663        6     0.00000   26.71061    4.38955   40.86664
    5733      663        6     0.00000   27.18432    3.13089   41.66842
    5734      664        5     0.00000   40.76254    3.16480   36.27204
    5735      664        6     0.00000   40.24704    2.34041   36.08566
    5736      664        6     0.00000   41.60454    3.05203   35.76311
    5737      665        5     0.00000   36.00470   14.74173   51.87654
    5738      665        6     0.00000   36.38561   14.67890   50.96567
    5739      665        6     0.00000   36.64849   14.25330   52.44804
    5740      666        5     0.00000   50.96409   10.35349   26.58416
    5741      666        6     0.00000   50.19675   10.52173   25.98165
    5742      666        6     0.00000   50.57713    9.85060   27.34441
    5743      667        5     0.00000   50.78428   15.71990   26.64095
    5744      667        6     0.00000   50.78060   14.83558   26.19616
    5745      667        6     0.00000   51.53086   16.20912   26.21245
    5746      668        5     0.00000   50.32740    8.35850   38.02045
    5747      668        6     0.00000   50.13628    8.03253   38.93291
    5748      668        6     0.00000   49.46068    8.70366   37.69317
    5749      669        5     0.00000   39.74836   23.27320   41.74019
    5750      669        6     0.00000   40.19762   23.94355   41.16580
    5751      669        6     0.00000   38.78149   23.42068   41.58457
    5752      670        5     0.00000   26.78448   16.29455   43.68129
    5753      670        6     0.00000   27.11071   15.53851   44.23044
    5754      670        6     0.00000   25.84416   16.42205   43.96336
    5755      671        5     0.00000   29.99213   26.02765   36.55385
    5756      671        6     0.00000   29.85727   26.98427   36.33960
    5757      671        6     0.00000   30.28261   26.02397   37.49995
    5758      672        5     0.00000   28.92142    0.08465   42.00596
    5759      672        6     0.00000   29.88855    0.03996   42.21416
    5760      672        6     0.00000   28.47321   -0.10568   42.86794
    5761      673        5     0.00000   40.74467   26.04868   43.90815
    5762      673        6     0.00000   41.51306   25.42434   43.92340
    5763      673        6     0.00000   40.05698   25.60994   44.46966
    5764      674        5     0.00000   34.86669    1.49788   40.87085
    5765      674        6     0.00000   35.79702    1.70530   41.13636
    5766      674        6     0.00000   34.66322    0.64379   41.32747
    5767      675        5     0.00000   47.63105   11.62740   41.19603
    5768      675        6     0.00000   48.52221   11.42919   41.57931
    5769      675        6     0.00000   47.64997   12.60032   41.01228
    5770      676        5     0.00000   37.12193   12.33586   39.20078
    5771      676        6     0.00000   36.92109   13.18601   39.66713
    5772      676        6     0.00000   37.68213   11.82771   39.83984
    5773      677        5     0.00000   30.59228   15.01249   51.82896
    5774      677        6     0.00000   30.93981   14.47123   51.07660
    5775      677        6     0.00000   31.36068   15.56953   52.11024
    5776      678        5     0.00000   26.50583    1.71213   35.54466
    5777      678        6     0.00000   26.15278    1.93348   34.64614
    5778      678        6     0.00000   27.47138    1.54862   35.39902
    5779      679        5     0.00000   41.57195   16.27142   48.38419
    5780      679        6     0.00000   41.41738   16.58004   49.31163
    5781      679        6     0.00000   42.50254   16.54219   48.18362
    5782      680        5     0.00000   41.22258    8.42369   51.12760
    5783      680        6     0.00000   41.14056    8.40293   50.14128
    5784      680        6     0.00000   41.69524    7.58485   51.35604
    5785      681        5     0.00000   51.92596   23.17147   51.95015
    5786      681        6     0.00000   51.32292   23.45722   51.21908
    5787      681        6     0.00000   51.82291   23.86915   52.64441
    5788      682        5     0.00000   29.48950   24.51189   30.38014
    5789      682        6     0.00000   29.75948   25.10389   29.63461
    5790      682        6     0.00000   28.58099   24.81814   30.62698
    5791      683        5     0.00000   35.55360   11.47230   52.53505
    5792      683        6     0.00000   35.54571   11.39712   51.54821
    5793      683        6     0.00000   36.32094   10.91579   52.82080
    5794      684        5     0.00000   37.83039   12.42156   49.55322
    5795      684        6     0.00000   38.29043   12.96151   50.24406
    5796      684        6     0.00000   38.11062   12.82692   48.69439
    5797      685        5     0.00000   30.84333   16.03509   37.71052
    5798      685        6     0.00000   30.93455   15.97384   36.72683
    5799      685        6     0.00000   31.52051   15.40576   38.06172
    5800      686        5     0.00000   35.89481   22.85917   36.75048
    5801      686        6     0.00000   36.76889   23.24560   37.00968
    5802      686        6     0.00000   35.30702   23.03109   37.52834
    5803      687        5     0.00000   27.07128   21.91464   41.23099
    5804      687        6     0.00000   27.93589   21.97038   40.75203
    5805      687        6     0.00000   27.16040   22.55765   41.97862
    5806      688        5     0.00000   26.50635   15.57637   49.01773
    5807      688        6     0.00000   26.32313   14.72990   49.49775
    5808      688        6     0.00000   26.41224   15.34425   48.05954
    5809      689        5     0.00000   36.14350   22.54293   43.61294
    5810      689        6     0.00000   35.18898   22.77242   43.74201
    5811      689        6     0.00000   36.24917   21.66649   44.05957
    5812      690        5     0.00000   36.97262   17.25143   50.21699
    5813      690        6     0.00000   36.07094   17.65916   50.20857
    5814      690        6     0.00000   37.49864   17.79244   49.57688
    5815      691        5     0.00000   46.62501   20.22591   33.83253
    5816      691        6     0.00000   46.31797   20.17439   34.76733
    5817      691        6     0.00000   46.26224   21.08027   33.50104
    5818      692        5     0.00000   38.02466   23.70459   50.79953
    5819      692        6     0.00000   37.04911   23.66095   50.96120
    5820      692        6     0.00000   38.41819   23.86968   51.69253
    5821      693        5     0.00000   42.85375   13.36030   36.44160
    5822      693        6     0.00000   42.30091   12.70284   36.93397
    5823      693        6     0.00000   42.49124   14.24147   36.71026
    5824      694        5     0.00000   48.58293   13.40630   51.45147
    5825      694        6     0.00000   48.56821   13.43101   50.46173
    5826      694        6     0.00000   47.63893   13.54169   51.71776
    5827      695        5     0.00000   32.17876    0.53233   28.27711
    5828      695        6     0.00000   31.59753    0.29574   27.51160
    5829      695        6     0.00000   31.56257    0.57413   29.05076
    5830      696        5     0.00000   28.03762    2.37695   38.74022
    5831      696        6     0.00000   28.59493    1.56019   38.76782
    5832      696        6     0.00000   28.60965    3.08304   39.13427
    5833      697        5     0.00000   51.58606   13.50278   45.10872
    5834      697        6     0.00000   50.81661   14.10793   45.25751
    5835      697        6     0.00000   51.73432   13.52539   44.12976
    5836      698        5     0.00000   41.23941   12.96966   42.12610
    5837      698        6     0.00000   42.20838   12.86398   42.29986
    5838      698        6     0.00000   41.18131   13.73490   41.50018
    5839      699        5     0.00000   38.97760   11.85532   27.35361
    5840      699        6     0.00000   38.92739   11.92051   26.36703
    5841      699        6     0.00000   39.22312   10.91211   27.52843
    5842      700        5     0.00000   35.42426    4.00338   35.75917
    5843      700        6     0.00000   34.63851    3.72578   35.22447
    5844      700        6     0.00000   36.19450    3.57410   35.30886
    5845      701        5     0.00000   50.31478   13.66261   36.12720
    5846      701        6     0.00000   50.25248   14.03248   37.04333
    5847      701        6     0.00000   51.25194   13.83006   35.85538
    5848      702        5     0.00000   30.17430    3.15534   50.33002
    5849      702        6     0.00000   30.94007    2.67059   49.93308
    5850      702        6     0.00000   29.40012    2.55755   50.18045
    5851      703        5     0.00000   43.53539    3.50339   38.30883
    5852      703        6     0.00000   43.03408    2.69819   38.02597
    5853      703        6     0.00000   42.83640    4.16137   38.55094
    5854      704        5     0.00000   26.45930    9.99650   29.30339
    5855      704        6     0.00000   25.77476    9.55197   29.86069
    5856      704        6     0.00000   26.29842   10.96337   29.44140
    5857      705        5     0.00000   47.55770    1.51077   27.94535
    5858      705        6     0.00000   46.86896    1.21135   27.29972
    5859      705        6     0.00000   48.37605    1.01997   27.68116
    5860      706        5     0.00000   30.16537   11.17236   40.39819
    5861      706        6     0.00000   30.43876   11.19838   39.44710
    5862      706        6     0.00000   31.01289   11.05774   40.89687
    5863      707        5     0.00000   39.15136   12.19969   36.25732
    5864      707        6     0.00000   38.29017   12.68365   36.18424
    5865      707        6     0.00000   39.07328   11.67893   37.09591
    5866      708        5     0.00000   38.56750    2.56149   41.88083
    5867      708        6     0.00000   37.85458    2.59146   42.56747
    5868      708        6     0.00000   38.76256    3.51206   41.68420
    5869      709        5     0.00000   27.25293    4.72735   51.95856
    5870      709        6     0.00000   27.89067    5.40532   52.29636
    5871      709        6     0.00000   27.33968    3.96816   52.58842
    5872      710        5     0.00000   49.89601   17.11316   36.64665
    5873      710        6     0.00000   49.48303   16.81611   35.79702
    5874      710        6     0.00000   50.83344   16.79876   36.59039
    5875      711        5     0.00000   41.18052   15.38368   30.03918
    5876      711        6     0.00000   41.03331   14.45756   30.35595
    5877      711        6     0.00000   40.98205   15.94966   30.82703
    5878      712        5     0.00000   29.25948   12.10216   35.01391
    5879      712        6     0.00000   29.32363   12.56036   35.88903
    5880      712        6     0.00000   29.25975   12.83638   34.34935
    5881      713        5     0.00000   26.79710   10.18052   43.64580
    5882      713        6     0.00000   27.25766   10.87189   44.18497
    5883      713        6     0.00000   25.91251   10.07694   44.07850
    5884      714        5     0.00000   51.37471   25.10810   46.47359
    5885      714        6     0.00000   52.27165   25.34022   46.82269
    5886      714        6     0.00000   51.49300   25.06551   45.49121
    5887      715        5     0.00000   48.43309   16.82846   42.00570
    5888      715        6     0.00000   48.36579   16.66443   41.03147
    5889      715        6     0.00000   48.93387   17.67888   42.08114
    5890      716        5     0.00000   39.04095    5.97918   52.14179
    5891      716        6     0.00000   39.73942    6.36246   52.72643
    5892      716        6     0.00000   39.43290    6.00258   51.23459
    5893      717        5     0.00000   40.09615   19.94647   51.03323
    5894      717        6     0.00000   39.46970   20.27559   50.34133
    5895      717        6     0.00000   39.95997   20.55582   51.80083
    5896      718        5     0.00000   34.75129   26.03080   37.83171
    5897      718        6     0.00000   34.97316   25.59916   38.69447
    5898      718        6     0.00000   34.00261   25.49322   37.46972
    5899      719        5     0.00000   49.26589   22.63204   27.22980
    5900      719        6     0.00000   48.30218   22.41727   27.17275
    5901      719        6     0.00000   49.33319   23.27031   27.98347
    5902      720        5     0.00000   37.33434    0.76629   50.57950
    5903      720        6     0.00000   38.28517    0.60883   50.80294
    5904      720        6     0.00000   37.21578    0.35462   49.68676
    5905      721        5     0.00000   51.51456   24.23429   36.10748
    5906      721        6     0.00000   51.25694   25.18512   36.20554
    5907      721        6     0.00000   51.00957   23.76347   36.81699
    5908      722        5     0.00000   38.62560   19.10631   38.47865
    5909      722        6     0.00000   38.93974   19.01378   37.54412
    5910      722        6     0.00000   38.63454   18.18360   38.83722
    5911      723        5     0.00000   28.75896   23.62546   38.32197
    5912      723        6     0.00000   29.08362   22.72642   38.57960
    5913      723        6     0.00000   27.82995   23.47667   38.01414
    5914      724        5     0.00000   48.55375    0.24185   41.57063
    5915      724        6     0.00000   49.53508    0.15378   41.47573
    5916      724        6     0.00000   48.18809   -0.55783   41.11638
    5917      725        5     0.00000   42.17000    8.88636   28.08783
    5918      725        6     0.00000   41.75044    8.05829   27.74583
    5919      725        6     0.00000   42.23519    8.74730   29.06601
    5920      726        5     0.00000   33.22580   13.68574   40.78568
    5921      726        6     0.00000   34.04046   14.10372   41.16212
    5922      726        6     0.00000   32.49447   14.31429   41.01018
    5923      727        5     0.00000   38.84589    9.09456   41.17211
    5924      727        6     0.00000   38.81566    9.06091   42.16080
    5925      727        6     0.00000   37.90741    9.25229   40.89845
    5926      728        5     0.00000   28.43510   12.98806   50.77613
    5927      728        6     0.00000   27.82127   12.47124   50.19622
    5928      728        6     0.00000   27.84861   13.39079   51.46435
    5929      729        5     0.00000   43.96362   12.22177   51.69410
    5930      729        6     0.00000   43.05748   12.45889   52.01166
    5931      729        6     0.00000   44.24227   11.47283   52.27691
    5932      730        5     0.00000   47.89813   22.00140   30.01579
    5933      730        6     0.00000   48.25854   21.21565   30.49738
    5934      730        6     0.00000   48.40838   22.76926   30.37698
    5935      731        5     0.00000   41.99939   25.55105   35.49760
    5936      731        6     0.00000   42.65370   24.95011   35.06017
    5937      731        6     0.00000   41.78094   26.22612   34.80702
    5938      732        5     0.00000   26.25714    3.13273   29.67352
    5939      732        6     0.00000   26.14884    3.97578   30.18088
    5940      732        6     0.00000   25.75110    2.46028   30.19560
    5941      733        5     0.00000   34.45134   10.89765   39.73206
    5942      733        6     0.00000   34.16481   11.08140   38.80304
    5943      733        6     0.00000   35.13141   10.18367   39.64399
    5944      734        5     0.00000   40.75045   16.78141   37.76967
    5945      734        6     0.00000   40.63715   15.82190   37.55463
    5946      734        6     0.00000   41.63294   16.83635   38.21498
    5947      735        5     0.00000   47.71280   11.88292   27.78368
    5948      735        6     0.00000   47.33347   12.36635   28.55996
    5949      735        6     0.00000   46.95545   11.35506   27.42511
    5950      736        5     0.00000   46.29825    7.80987   33.31308
    5951      736        6     0.00000   46.32165    7.66897   34.29257
    5952      736        6     0.00000   46.36371    8.79146   33.20372
    5953      737        5     0.00000   28.66853   13.73674   39.24862
    5954      737        6     0.00000   28.59624   14.55246   38.69158
    5955      737        6     0.00000   28.94902   13.02802   38.61561
    5956      738        5     0.00000   43.69838   23.42278   42.30459
    5957      738        6     0.00000   43.99359   24.28266   41.91211
    5958      738        6     0.00000   42.71021   23.45144   42.25123
    5959      739        5     0.00000   38.06172   14.22780   32.26104
    5960      739        6     0.00000   38.60063   15.05429   32.34095
    5961      739        6     0.00000   37.33224   14.46571   31.63538
    5962      740        5     0.00000   50.39285    1.79967   38.78780
    5963      740        6     0.00000   49.42625    1.98342   38.89899
    5964      740        6     0.00000   50.42887    1.01077   38.19159
    5965      741        5     0.00000   30.65747   25.87465   50.00432
    5966      741        6     0.00000   30.82729   25.42250   49.14155
    5967      741        6     0.00000   31.20400   25.37177   50.65889
    5968      742        5     0.00000   37.08066   25.45405   34.91638
    5969      742        6     0.00000   37.86089   25.43459   35.52599
    5970      742        6     0.00000   36.51021   26.18380   35.26627
    5971      743        5     0.00000   34.17138   18.25353   47.49645
    5972      743        6     0.00000   33.38064   18.42125   46.92443
    5973      743        6     0.00000   34.29703   17.27220   47.46543
    5974      744        5     0.00000   42.46705    2.10251   40.80276
    5975      744        6     0.00000   42.23598    1.24578   40.36402
    5976      744        6     0.00000   41.70444    2.28731   41.40581
    5977      745        5     0.00000   37.95079   25.69642   46.68573
    5978      745        6     0.00000   37.86903   26.68248   46.66497
    5979      745        6     0.00000   37.50810   25.39464   45.85451
    5980      746        5     0.00000   33.56571   20.01902   32.74973
    5981      746        6     0.00000   33.12696   19.26588   32.27944
    5982      746        6     0.00000   34.51049   19.97854   32.45662
    5983      747        5     0.00000   40.72153    0.09385   27.51370
    5984      747        6     0.00000   40.28700    0.23817   26.63569
    5985      747        6     0.00000   41.19025    0.94558   27.70245
    5986      748        5     0.00000   36.22920   24.91515   27.53815
    5987      748        6     0.00000   36.04124   23.99901   27.21297
    5988      748        6     0.00000   37.19922   25.04001   27.38673
    5989      749        5     0.00000   45.26750   19.08975   31.12461
    5990      749        6     0.00000   44.56509   19.73170   31.39643
    5991      749        6     0.00000   45.20257   18.35631   31.78496
    5992      750        5     0.00000   27.05498   16.35712   40.71759
    5993      750        6     0.00000   27.33784   17.07925   40.10245
    5994      750        6     0.00000   27.89751   16.01538   41.10849
    5995      751        5     0.00000   36.12562    1.90955   27.89672
    5996      751        6     0.00000   36.74891    1.56255   27.21113
    5997      751        6     0.00000   36.48208    1.56965   28.75476
    5998      752        5     0.00000   28.16486   24.51557   51.24958
    5999      752        6     0.00000   27.70193   24.95589   50.49432
    6000      752        6     0.00000   27.93431   25.06604   52.04005
    6001      753        5     0.00000   28.61149    1.64378   31.29180
    6002      753        6     0.00000   28.41932    1.15930   30.45138
    6003      753        6     0.00000   28.38778    0.99947   32.00972
    6004      754        5     0.00000   51.74589   25.55867   31.49974
    6005      754        6     0.00000   50.97802   25.65673   30.88197
    6006      754        6     0.00000   51.47039   24.84391   32.12723
    6007      755        5     0.00000   38.88164    3.45949   27.49714
    6008      755        6     0.00000   39.81434    3.15166   27.61150
    6009      755        6     0.00000   38.52492    3.54045   28.41617
    6010      756        5     0.00000   50.25379   14.19731   40.81433
    6011      756        6     0.00000   50.64706   13.35084   41.14451
    6012      756        6     0.00000   50.57371   14.88500   41.45129
    6013      757        5     0.00000   51.20962    0.52628   26.90829
    6014      757        6     0.00000   52.05635    0.26104   26.46876
    6015      757        6     0.00000   51.46961    1.25130   27.53105
    6016      758        5     0.00000   29.42484    3.55833   28.46322
    6017      758        6     0.00000   29.87226    2.68163   28.56916
    6018      758        6     0.00000   29.75107    3.90034   27.59336
    6019      759        5     0.00000   44.36451    5.02809   34.72080
    6020      759        6     0.00000   44.19863    4.52625   35.55701
    6021      759        6     0.00000   45.27486    5.39743   34.83173
    6022      760        5     0.00000   40.04462    1.94084   30.31494
    6023      760        6     0.00000   40.30014    2.87642   30.12883
    6024      760        6     0.00000   39.68658    1.96081   31.23660
    6025      761        5     0.00000   51.79426   14.56639   31.85384
    6026      761        6     0.00000   52.23485   15.45124   31.79968
    6027      761        6     0.00000   51.90152   14.28747   32.79652
    6028      762        5     0.00000   39.72890    7.83432   37.36615
    6029      762        6     0.00000   40.51307    8.37270   37.64086
    6030      762        6     0.00000   39.10115    7.90372   38.12876
    6031      763        5     0.00000   39.68763   18.51457   27.87359
    6032      763        6     0.00000   40.10745   18.53060   28.77000
    6033      763        6     0.00000   38.99153   17.81373   27.93852
    6034      764        5     0.00000   29.99581   15.17784   43.05327
    6035      764        6     0.00000   30.87514   15.58399   42.85375
    6036      764        6     0.00000   29.81626   15.42679   43.99412
    6037      765        5     0.00000   45.55378   25.13018   52.36287
    6038      765        6     0.00000   46.49331   24.89438   52.56818
    6039      765        6     0.00000   45.34058   24.61284   51.54610
    6040      766        5     0.00000   26.49952   20.66807   28.04130
    6041      766        6     0.00000   27.28973   20.81528   27.46271
    6042      766        6     0.00000   26.08548   21.56318   28.12937
    6043      767        5     0.00000   26.77186    7.48206   40.30803
    6044      767        6     0.00000   25.94248    6.94290   40.34246
    6045      767        6     0.00000   26.51450    8.35903   40.68920
    6046      768        5     0.00000   51.57265   11.04381   38.56041
    6047      768        6     0.00000   50.95699   10.75017   39.27701
    6048      768        6     0.00000   51.19253   11.90001   38.24153
    6049      444        1     0.00000   34.58173   32.70741   24.94406
    6050      444        1     0.00000   34.61170   45.87028   11.81930
    6051      444        1     0.00000   47.73541   32.69873   11.80116
    6052      444        1     0.00000   47.68467   45.85030   24.95905
    6053      444        1     0.00000   44.32061   46.14368   24.90884
    6054      444        1     0.00000   44.32613   32.99683   11.81142
    6055      444        1     0.00000   31.15458   46.10819   11.81536
    6056      444        1     0.00000   31.16746   32.95977   24.98034
    6057      444        1     0.00000   44.32350   32.70057    1.30966
    6058      444        1     0.00000   44.36162   45.87554   14.45256
    6059      444        1     0.00000   31.16615   32.70372   14.45519
    6060      444        1     0.00000   31.19848   45.85556    1.29810
    6061      444        1     0.00000   34.55413   46.21649    1.30230
    6062      444        1     0.00000   34.55650   33.02181   14.47280
    6063      444        1     0.00000   47.71254   46.21124   14.46255
    6064      444        1     0.00000   47.68704   33.02470    1.33858
    6065      444        1     0.00000   51.24958   34.55860    6.45394
    6066      444        1     0.00000   51.26167   47.72016   19.59185
    6067      444        1     0.00000   38.11430   34.60145   19.57108
    6068      444        1     0.00000   38.12534   47.75775    6.37166
    6069      444        1     0.00000   51.24484   44.29853   19.87392
    6070      444        1     0.00000   51.26167   31.08018    6.67529
    6071      444        1     0.00000   38.14611   44.30720    6.68265
    6072      444        1     0.00000   38.11167   31.14459   19.81503
    6073      444        1     0.00000   27.59152   44.30747    6.36062
    6074      444        1     0.00000   27.60703   31.15248   19.53953
    6075      444        1     0.00000   40.75991   44.27908   19.50457
    6076      444        1     0.00000   40.80723   31.17745    6.44290
    6077      444        1     0.00000   27.63095   34.54572   19.87129
    6078      444        1     0.00000   27.62359   47.67206    6.70263
    6079      444        1     0.00000   40.75439   34.55755    6.71209
    6080      444        1     0.00000   40.78699   47.69282   19.77954
    6081      444        1     0.00000   32.71503   51.24695    8.30671
    6082      444        1     0.00000   32.72712   38.09800   21.45145
    6083      444        1     0.00000   45.82218   51.29216   21.38258
    6084      444        1     0.00000   45.79510   38.15294    8.30224
    6085      444        1     0.00000   46.18784   51.29873   18.02798
    6086      444        1     0.00000   46.12422   38.09905    4.94160
    6087      444        1     0.00000   33.00893   51.28349    4.88771
    6088      444        1     0.00000   32.98921   38.11561   18.01457
    6089      444        1     0.00000   32.70346   27.59152   17.98592
    6090      444        1     0.00000   32.70609   40.74414    4.84933
    6091      444        1     0.00000   45.89289   27.60519    4.84880
    6092      444        1     0.00000   45.87344   40.74072   17.98986
    6093      444        1     0.00000   46.15130   27.54578    8.31407
    6094      444        1     0.00000   46.13080   40.74730   21.42122
    6095      444        1     0.00000   33.01024   27.59546   21.40308
    6096      444        1     0.00000   33.03416   40.75545    8.24494
    6097      444        1     0.00000   32.72844   34.54861    1.30703
    6098      444        1     0.00000   32.74000   47.70597   14.46649
    6099      444        1     0.00000   45.87501   34.57989   14.43101
    6100      444        1     0.00000   45.80167   47.75933    1.23816
    6101      444        1     0.00000   46.10556   44.33034    1.33989
    6102      444        1     0.00000   46.17654   31.16273   14.44362
    6103      444        1     0.00000   32.99342   44.25279   14.45677
    6104      444        1     0.00000   33.03653   31.11856    1.32570
    6105      444        1     0.00000   32.71845   44.33586   24.95615
    6106      444        1     0.00000   32.71503   31.18402   11.83034
    6107      444        1     0.00000   45.88947   44.39685   11.77461
    6108      444        1     0.00000   45.84347   31.19638   24.96352
    6109      444        1     0.00000   46.18889   34.57937   24.98271
    6110      444        1     0.00000   46.25724   47.74119   11.84717
    6111      444        1     0.00000   33.04126   34.56412   11.83376
    6112      444        1     0.00000   33.05887   47.69992   24.94590
    6113      444        1     0.00000   34.58200   51.25036   19.83448
    6114      444        1     0.00000   34.57174   38.10589    6.71025
    6115      444        1     0.00000   47.69677   51.19910    6.65373
    6116      444        1     0.00000   47.71674   38.11456   19.85683
    6117      444        1     0.00000   44.27145   51.27350    6.38296
    6118      444        1     0.00000   44.29038   38.10563   19.55531
    6119      444        1     0.00000   31.15432   51.24563   19.56451
    6120      444        1     0.00000   31.17508   38.10379    6.39795
    6121      444        1     0.00000   44.31772   27.63857   19.88469
    6122      444        1     0.00000   44.30037   40.79093    6.73811
    6123      444        1     0.00000   31.16220   27.60755    6.75573
    6124      444        1     0.00000   31.13907   40.73047   19.88496
    6125      444        1     0.00000   34.57989   27.61491    6.46472
    6126      444        1     0.00000   34.56491   40.74993   19.60131
    6127      444        1     0.00000   47.68178   27.64120   19.55688
    6128      444        1     0.00000   47.65944   40.74756    6.39716
    6129      444        1     0.00000   51.26614   32.71424   18.00826
    6130      444        1     0.00000   51.25720   45.81823    4.85853
    6131      444        1     0.00000   38.16136   32.67218    4.82514
    6132      444        1     0.00000   38.10142   45.85477   17.98382
    6133      444        1     0.00000   51.25956   46.15787    8.21891
    6134      444        1     0.00000   51.27665   33.00893   21.41649
    6135      444        1     0.00000   38.14900   46.14788   21.38836
    6136      444        1     0.00000   38.13060   33.00236    8.25598
    6137      444        1     0.00000   27.61176   32.72029    8.29252
    6138      444        1     0.00000   27.59940   45.84636   21.43489
    6139      444        1     0.00000   40.74072   32.74736   21.42096
    6140      444        1     0.00000   40.79961   45.95230    8.19893
    6141      444        1     0.00000   27.60045   46.13947   18.01483
    6142      444        1     0.00000   27.60650   32.96766    4.82856
    6143      444        1     0.00000   40.73047   46.18337    4.78676
    6144      444        1     0.00000   40.75255   32.98947   17.96016
    6145      444        1     0.00000   44.24201   46.19730    1.24578
    6146      444        1     0.00000   44.32377   33.00446   14.43889
    6147      444        1     0.00000   31.17666   46.14394   14.45545
    6148      444        1     0.00000   31.16588   32.98658    1.30388
    6149      444        1     0.00000   34.61091   32.67165    1.30519
    6150      444        1     0.00000   34.55755   45.81639   14.45940
    6151      444        1     0.00000   47.73252   32.73396   14.45782
    6152      444        1     0.00000   47.67363   45.89210    1.33201
    6153      444        1     0.00000   34.62458   46.14052   24.95589
    6154      444        1     0.00000   34.60355   32.99999   11.83876
    6155      444        1     0.00000   47.80349   46.16418   11.83061
    6156      444        1     0.00000   47.73751   32.99894   24.97797
    6157      444        1     0.00000   44.30983   32.78627   24.93670
    6158      444        1     0.00000   44.32350   45.95651   11.80222
    6159      444        1     0.00000   31.15142   32.74789   11.82430
    6160      444        1     0.00000   31.15432   45.89894   24.94801
    6161      444        1     0.00000   27.59309   44.28617   19.86892
    6162      444        1     0.00000   27.62517   31.15721    6.72760
    6163      444        1     0.00000   40.79672   44.37187    6.65583
    6164      444        1     0.00000   40.74940   31.18323   19.85841
    6165      444        1     0.00000   27.60335   34.52863    6.39322
    6166      444        1     0.00000   27.61307   47.70018   19.58028
    6167      444        1     0.00000   40.75282   34.55387   19.52218
    6168      444        1     0.00000   40.72285   47.76091    6.33828
    6169      444        1     0.00000   51.27876   34.57726   19.85893
    6170      444        1     0.00000   51.27350   47.72463    6.65820
    6171      444        1     0.00000   38.12508   34.56202    6.69343
    6172      444        1     0.00000   38.14900   47.71622   19.83185
    6173      444        1     0.00000   51.24116   44.25831    6.42555
    6174      444        1     0.00000   51.26325   31.14853   19.56950
    6175      444        1     0.00000   38.12587   44.28880   19.54505
    6176      444        1     0.00000   38.15531   31.12119    6.40426
    6177      444        1     0.00000   46.12554   27.64199   17.98592
    6178      444        1     0.00000   46.09504   40.74493    4.83645
    6179      444        1     0.00000   33.01182   27.62096    4.90690
    6180      444        1     0.00000   32.99683   40.74861   18.04270
    6181      444        1     0.00000   32.72107   27.60361    8.32196
    6182      444        1     0.00000   32.70635   40.73967   21.44383
    6183      444        1     0.00000   45.87396   27.64015   21.45250
    6184      444        1     0.00000   45.86897   40.79803    8.29778
    6185      444        1     0.00000   46.17443   51.24774    8.25598
    6186      444        1     0.00000   46.14604   38.10747   21.41228
    6187      444        1     0.00000   33.02654   51.24852   21.40308
    6188      444        1     0.00000   33.00893   38.11009    8.27228
    6189      444        1     0.00000   32.71056   51.24511   17.99407
    6190      444        1     0.00000   32.73290   38.09669    4.83224
    6191      444        1     0.00000   45.83006   51.26693    4.81594
    6192      444        1     0.00000   45.86371   38.10747   18.00406
    6193      444        1     0.00000   46.13474   44.27750   24.97482
    6194      444        1     0.00000   46.16839   31.14117   11.82062
    6195      444        1     0.00000   33.05677   44.30089   11.81536
    6196      444        1     0.00000   33.02339   31.14117   24.95274
    6197      444        1     0.00000   32.73422   34.52101   24.96877
    6198      444        1     0.00000   32.71056   47.67994   11.82509
    6199      444        1     0.00000   45.87633   34.57306   11.80169
    6200      444        1     0.00000   45.88106   47.71228   24.91751
    6201      444        1     0.00000   46.14447   34.60592    1.32149
    6202      444        1     0.00000   46.14972   47.77247   14.47307
    6203      444        1     0.00000   32.99184   34.58436   14.46833
    6204      444        1     0.00000   32.98527   47.77537    1.29284
    6205      444        1     0.00000   32.76498   44.29721    1.30993
    6206      444        1     0.00000   32.73080   31.14170   14.45966
    6207      444        1     0.00000   45.90525   44.29669   14.41865
    6208      444        1     0.00000   45.88527   31.13171    1.30703
    6209      444        1     0.00000   44.37371   27.65540    6.45421
    6210      444        1     0.00000   44.29748   40.74598   19.54006
    6211      444        1     0.00000   31.14748   27.59204   19.55557
    6212      444        1     0.00000   31.15064   40.74966    6.41951
    6213      444        1     0.00000   34.56727   27.59861   19.83317
    6214      444        1     0.00000   34.59251   40.75387    6.67870
    6215      444        1     0.00000   47.71149   27.54210    6.74679
    6216      444        1     0.00000   47.70123   40.74782   19.86577
    6217      444        1     0.00000   34.57647   51.26219    6.44579
    6218      444        1     0.00000   34.55544   38.11299   19.57607
    6219      444        1     0.00000   47.74014   51.29689   19.60052
    6220      444        1     0.00000   47.69046   38.10720    6.50284
    6221      444        1     0.00000   44.26803   51.28822   19.80925
    6222      444        1     0.00000   44.23176   38.14690    6.74101
    6223      444        1     0.00000   31.15826   51.26193    6.73733
    6224      444        1     0.00000   31.16273   38.09248   19.88969
    6225      444        1     0.00000   27.60335   46.10898    8.26544
    6226      444        1     0.00000   27.62385   32.97160   21.42385
    6227      444        1     0.00000   40.78436   46.13789   21.35130
    6228      444        1     0.00000   40.74256   32.99762    8.28253
    6229      444        1     0.00000   27.61675   32.72186   17.98224
    6230      444        1     0.00000   27.60703   45.87554    4.80148
    6231      444        1     0.00000   40.80750   32.73685    4.87903
    6232      444        1     0.00000   40.73994   45.82980   17.92993
    6233      444        1     0.00000   51.25089   46.15892   18.02640
    6234      444        1     0.00000   51.24931   33.00682    4.87825
    6235      444        1     0.00000   38.11351   46.18521    4.82120
    6236      444        1     0.00000   38.11325   33.03837   18.00695
    6237      444        1     0.00000   51.26062   32.64116    8.24047
    6238      444        1     0.00000   51.24984   45.85766   21.44041
    6239      444        1     0.00000   38.10641   32.70767   21.37863
    6240      444        1     0.00000   38.13454   45.88159    8.23758
    6241      444        2     0.00000   33.65824   33.59856    0.00289
    6242      444        2     0.00000   33.62801   46.74146   13.14316
    6243      444        2     0.00000   46.80561   33.63984   13.11792
    6244      444        2     0.00000   46.74567   46.76985   -0.01866
    6245      444        2     0.00000   45.21466   45.23701   -0.01498
    6246      444        2     0.00000   45.29773   32.12539   13.12870
    6247      444        2     0.00000   32.11829   45.22465   13.13580
    6248      444        2     0.00000   32.12618   32.06230    0.00920
    6249      444        2     0.00000   45.22518   33.67007    0.00289
    6250      444        2     0.00000   45.30877   46.80009   13.14264
    6251      444        2     0.00000   32.11251   33.62406   13.14526
    6252      444        2     0.00000   32.13065   46.77669   -0.02261
    6253      444        2     0.00000   33.63405   45.28012   -0.01341
    6254      444        2     0.00000   33.62144   32.11540   13.15052
    6255      444        2     0.00000   46.79141   45.30141   13.12423
    6256      444        2     0.00000   46.74988   32.12276    0.00421
    6257      444        2     0.00000   26.28711   33.58200    7.31540
    6258      444        2     0.00000   26.28737   46.75540   20.48642
    6259      444        2     0.00000   39.42870   33.62590   20.44752
    6260      444        2     0.00000   39.43343   46.81612    7.28806
    6261      444        2     0.00000   26.27870   45.25120   18.97697
    6262      444        2     0.00000   26.28580   32.07019    5.80384
    6263      444        2     0.00000   39.43790   45.27565    5.76415
    6264      444        2     0.00000   39.43132   32.11777   18.93938
    6265      444        2     0.00000   26.27791   45.23438    7.28990
    6266      444        2     0.00000   26.29894   32.10594   20.45093
    6267      444        2     0.00000   39.45419   45.24358   20.41676
    6268      444        2     0.00000   39.44815   32.08570    7.31619
    6269      444        2     0.00000   26.30420   33.62222   18.94700
    6270      444        2     0.00000   26.29526   46.74567    5.78308
    6271      444        2     0.00000   39.44578   33.61618    5.78202
    6272      444        2     0.00000   39.44394   46.74830   18.90705
    6273      444        2     0.00000   33.64956   26.28553    7.38559
    6274      444        2     0.00000   33.61355   39.42554   20.49168
    6275      444        2     0.00000   46.75119   26.32313   20.46855
    6276      444        2     0.00000   46.72175   39.45130    7.34247
    6277      444        2     0.00000   45.24910   26.32313   18.95042
    6278      444        2     0.00000   45.21256   39.44552    5.83854
    6279      444        2     0.00000   32.13249   26.29815    5.86667
    6280      444        2     0.00000   32.10094   39.42212   18.98565
    6281      444        2     0.00000   33.61539   26.27738   18.93701
    6282      444        2     0.00000   33.63090   39.42528    5.78728
    6283      444        2     0.00000   46.76249   26.25872    5.78676
    6284      444        2     0.00000   46.75645   39.42738   18.96094
    6285      444        2     0.00000   45.26224   26.26871    7.30383
    6286      444        2     0.00000   45.24253   39.42633   20.45646
    6287      444        2     0.00000   32.11645   26.27660   20.44936
    6288      444        2     0.00000   32.12802   39.42975    7.29778
    6289      444        3     0.00000   34.78757   30.93271   23.33761
    6290      444        3     0.00000   34.10855   31.61698   24.47035
    6291      444        3     0.00000   34.83804   44.07850   10.21890
    6292      444        3     0.00000   34.14903   44.77303   11.34507
    6293      444        3     0.00000   44.11609   47.91627   23.29450
    6294      444        3     0.00000   44.79800   47.23357   24.43040
    6295      444        3     0.00000   44.06536   34.79020   10.23703
    6296      444        3     0.00000   44.77960   34.09698   11.34139
    6297      444        3     0.00000   30.94112   34.75260   23.39597
    6298      444        3     0.00000   31.63565   34.05387   24.50768
    6299      444        3     0.00000   44.11451   30.94007    2.91848
    6300      444        3     0.00000   44.79484   31.60726    1.78101
    6301      444        3     0.00000   44.11557   44.06798   16.01301
    6302      444        3     0.00000   44.81771   44.76829   14.90366
    6303      444        3     0.00000   30.91799   30.90327   16.02169
    6304      444        3     0.00000   31.62829   31.60410   14.91943
    6305      444        3     0.00000   34.78099   47.99776    2.88326
    6306      444        3     0.00000   34.08200   47.31139    1.76655
    6307      444        3     0.00000   34.77311   34.79913   16.06532
    6308      444        3     0.00000   34.08384   34.11302   14.94362
    6309      444        3     0.00000   49.63708   34.78257    4.68135
    6310      444        3     0.00000   50.77114   34.09304    5.35958
    6311      444        3     0.00000   36.51074   34.80807   17.79165
    6312      444        3     0.00000   37.63954   34.12905   18.47934
    6313      444        3     0.00000   49.66310   44.06220   21.66649
    6314      444        3     0.00000   50.77850   44.76225   20.97196
    6315      444        3     0.00000   49.67072   30.86252    8.47943
    6316      444        3     0.00000   50.79033   31.54732    7.77228
    6317      444        3     0.00000   36.55622   44.08533    8.47128
    6318      444        3     0.00000   37.67424   44.77907    7.77570
    6319      444        3     0.00000   29.20218   44.08612    4.60143
    6320      444        3     0.00000   28.07232   44.77907    5.27309
    6321      444        3     0.00000   42.34665   44.05063   17.71226
    6322      444        3     0.00000   41.21943   44.73964   18.40127
    6323      444        3     0.00000   42.42473   30.97898    4.68845
    6324      444        3     0.00000   41.28962   31.65510    5.36063
    6325      444        3     0.00000   29.21453   34.75760   21.66307
    6326      444        3     0.00000   28.09808   34.06807   20.96381
    6327      444        3     0.00000   42.32825   34.78389    8.51097
    6328      444        3     0.00000   41.21575   34.09015    7.81224
    6329      444        3     0.00000   30.92798   49.64785    8.50992
    6330      444        3     0.00000   31.62224   50.77850    7.82827
    6331      444        3     0.00000   30.94585   36.49339   21.67122
    6332      444        3     0.00000   31.63486   37.62061   20.98248
    6333      444        3     0.00000   47.95780   49.70201   17.81110
    6334      444        3     0.00000   47.27695   50.82687   18.50248
    6335      444        3     0.00000   47.87789   36.48261    4.73550
    6336      444        3     0.00000   47.21044   37.62061    5.41925
    6337      444        3     0.00000   34.79913   49.71042    4.62982
    6338      444        3     0.00000   34.10592   50.81083    5.34486
    6339      444        3     0.00000   30.91168   29.17641   17.75958
    6340      444        3     0.00000   31.60831   28.06023   18.45647
    6341      444        3     0.00000   30.92929   42.34770    4.62877
    6342      444        3     0.00000   31.61514   41.22048    5.32251
    6343      444        3     0.00000   47.94729   29.12252    8.53463
    6344      444        3     0.00000   47.24961   28.00634    7.84799
    6345      444        3     0.00000   47.92731   42.32983   21.65571
    6346      444        3     0.00000   47.23016   41.21601   20.95908
    6347      444        3     0.00000   34.81938   42.35454    8.46865
    6348      444        3     0.00000   34.12616   41.22942    7.77412
    6349      444        3     0.00000   30.92009   34.78836    2.87116
    6350      444        3     0.00000   31.62724   34.08594    1.76707
    6351      444        3     0.00000   30.94165   47.91890   16.05560
    6352      444        3     0.00000   31.64248   47.23515   14.93310
    6353      444        3     0.00000   47.88735   44.10715    2.92900
    6354      444        3     0.00000   47.19835   44.80378    1.81124
    6355      444        3     0.00000   47.94124   30.94796   16.05060
    6356      444        3     0.00000   47.26223   31.63749   14.92496
    6357      444        3     0.00000   34.83068   30.89354    2.90508
    6358      444        3     0.00000   34.13773   31.58307    1.78469
    6359      444        3     0.00000   30.93770   44.09769   23.36363
    6360      444        3     0.00000   31.62513   44.80194   24.48087
    6361      444        3     0.00000   30.92877   30.94217   10.25780
    6362      444        3     0.00000   31.61935   31.64879   11.36294
    6363      444        3     0.00000   47.95570   34.79282   23.38046
    6364      444        3     0.00000   47.27511   34.09935   24.50821
    6365      444        3     0.00000   48.02510   47.96569   10.24413
    6366      444        3     0.00000   47.34687   47.26906   11.37136
    6367      444        3     0.00000   34.82043   34.78520   10.23651
    6368      444        3     0.00000   34.13563   34.09409   11.36400
    6369      444        3     0.00000   34.82332   49.66652   21.62890
    6370      444        3     0.00000   34.12169   50.78113   20.93358
    6371      444        3     0.00000   34.79992   36.51521    8.49835
    6372      444        3     0.00000   34.10382   37.63665    7.80645
    6373      444        3     0.00000   44.01331   49.72330    4.55070
    6374      444        3     0.00000   44.72597   50.81398    5.27440
    6375      444        3     0.00000   44.08113   36.51652   17.76273
    6376      444        3     0.00000   44.76645   37.63533   18.46383
    6377      444        3     0.00000   30.92693   36.51389    4.60958
    6378      444        3     0.00000   31.63538   37.62955    5.30253
    6379      444        3     0.00000   44.07508   29.23583   21.65913
    6380      444        3     0.00000   44.77933   28.11123   20.97985
    6381      444        3     0.00000   44.11346   42.43551    8.47154
    6382      444        3     0.00000   44.78354   41.28068    7.81723
    6383      444        3     0.00000   30.94375   29.20586    8.53410
    6384      444        3     0.00000   31.63013   28.07863    7.84957
    6385      444        3     0.00000   34.81464   29.18693    4.66321
    6386      444        3     0.00000   34.11170   28.08336    5.36851
    6387      444        3     0.00000   34.77179   42.34586   17.81952
    6388      444        3     0.00000   34.08962   41.22284   18.51089
    6389      444        3     0.00000   49.67020   30.93481   17.78455
    6390      444        3     0.00000   50.79295   31.62014   18.47645
    6391      444        3     0.00000   36.58802   30.87304    4.60879
    6392      444        3     0.00000   37.69895   31.57571    5.29833
    6393      444        3     0.00000   49.69806   47.94519    8.45761
    6394      444        3     0.00000   50.80110   47.25460    7.75256
    6395      444        3     0.00000   36.56910   47.94440   21.62968
    6396      444        3     0.00000   37.68318   47.24856   20.92885
    6397      444        3     0.00000   36.53571   34.78336    8.48600
    6398      444        3     0.00000   37.65637   34.09409    7.78832
    6399      444        3     0.00000   29.21006   30.93744    8.51938
    6400      444        3     0.00000   28.08941   31.62697    7.82459
    6401      444        3     0.00000   42.33035   30.96110   21.64835
    6402      444        3     0.00000   41.21312   31.65195   20.95461
    6403      444        3     0.00000   29.20454   47.91627   17.79007
    6404      444        3     0.00000   28.08021   47.22963   18.48407
    6405      444        3     0.00000   29.18982   34.77626    4.60485
    6406      444        3     0.00000   28.07416   34.06728    5.29701
    6407      444        3     0.00000   42.27094   48.00486    4.52625
    6408      444        3     0.00000   41.18210   47.29219    5.23892
    6409      444        3     0.00000   43.98202   48.02615    2.77968
    6410      444        3     0.00000   44.69626   47.30665    1.69242
    6411      444        3     0.00000   44.08560   34.79756   16.01774
    6412      444        3     0.00000   44.78275   34.10592   14.90235
    6413      444        3     0.00000   34.77022   44.05326   16.06585
    6414      444        3     0.00000   34.08437   44.72597   14.93310
    6415      444        3     0.00000   34.84303   47.93546   23.36495
    6416      444        3     0.00000   34.15587   47.23462   24.48166
    6417      444        3     0.00000   44.06720   30.98713   23.36889
    6418      444        3     0.00000   44.76225   31.68165   24.48113
    6419      444        3     0.00000   44.12398   44.20048   10.16842
    6420      444        3     0.00000   44.79931   44.87529   11.30564
    6421      444        3     0.00000   29.18851   44.06273   21.65045
    6422      444        3     0.00000   28.06628   44.75147   20.96329
    6423      444        3     0.00000   42.40922   44.19180    8.42369
    6424      444        3     0.00000   41.27831   44.86162    7.73469
    6425      444        3     0.00000   42.34902   34.78152   17.74407
    6426      444        3     0.00000   41.22547   34.08437   18.42887
    6427      444        3     0.00000   49.68177   34.79414   21.64441
    6428      444        3     0.00000   50.80610   34.10540   20.95224
    6429      444        3     0.00000   49.63813   44.05957    4.64060
    6430      444        3     0.00000   50.77298   44.73070    5.33092
    6431      444        3     0.00000   36.50312   44.07429   17.79454
    6432      444        3     0.00000   37.63533   44.76225   18.46226
    6433      444        3     0.00000   47.92705   29.21637   17.77509
    6434      444        3     0.00000   47.22095   28.10755   18.45989
    6435      444        3     0.00000   47.88551   42.34534    4.62746
    6436      444        3     0.00000   47.19072   41.21759    5.30464
    6437      444        3     0.00000   30.92824   42.34061   21.65361
    6438      444        3     0.00000   31.61251   41.20970   20.97354
    6439      444        3     0.00000   47.95754   49.65784    8.47128
    6440      444        3     0.00000   47.25197   50.75747    7.76913
    6441      444        3     0.00000   47.93888   36.51941   21.64020
    6442      444        3     0.00000   47.24488   37.64007   20.94830
    6443      444        3     0.00000   30.92298   49.65995   17.77667
    6444      444        3     0.00000   31.61698   50.77692   18.46672
    6445      444        3     0.00000   47.91627   44.06273   23.38177
    6446      444        3     0.00000   47.22253   44.75094   24.49901
    6447      444        3     0.00000   47.94729   30.89144   10.22783
    6448      444        3     0.00000   47.26170   31.60042   11.34218
    6449      444        3     0.00000   30.93061   47.90155   10.23151
    6450      444        3     0.00000   31.61987   47.20755   11.35059
    6451      444        3     0.00000   47.88026   34.77942    2.97264
    6452      444        3     0.00000   47.21570   34.11591    1.81676
    6453      444        3     0.00000   47.94151   47.97936   16.06927
    6454      444        3     0.00000   47.24383   47.30113   14.94257
    6455      444        3     0.00000   30.95742   44.07929    2.89272
    6456      444        3     0.00000   31.66562   44.76435    1.77548
    6457      444        3     0.00000   44.14317   29.24003    4.67609
    6458      444        3     0.00000   44.82902   28.11097    5.34854
    6459      444        3     0.00000   44.09217   42.33062   17.74118
    6460      444        3     0.00000   44.77539   41.21286   18.44675
    6461      444        3     0.00000   34.79151   29.19087   21.61575
    6462      444        3     0.00000   34.10172   28.06812   20.92964
    6463      444        3     0.00000   34.77810   36.53440   17.78718
    6464      444        3     0.00000   34.08594   37.64795   18.47987
    6465      444        3     0.00000   44.06904   49.67940   21.58999
    6466      444        3     0.00000   44.73701   50.81477   20.90414
    6467      444        3     0.00000   44.02382   36.54991    8.53174
    6468      444        3     0.00000   44.70231   37.67897    7.83800
    6469      444        3     0.00000   29.20428   47.89813    8.49467
    6470      444        3     0.00000   28.08494   47.20255    7.79962
    6471      444        3     0.00000   42.37189   47.92126   21.57132
    6472      444        3     0.00000   41.25676   47.22805   20.87654
    6473      444        3     0.00000   29.18272   30.91247   17.74775
    6474      444        3     0.00000   28.07574   31.61882   18.44412
    6475      444        3     0.00000   49.66810   47.95202   17.80926
    6476      444        3     0.00000   50.78612   47.25460   18.49748
    6477      444        3     0.00000   36.53413   47.98409    4.59407
    6478      444        3     0.00000   37.65137   47.28536    5.28229
    6479      444        3     0.00000   36.51547   30.92745   21.60103
    6480      444        3     0.00000   37.63691   31.61409   20.90834
    6481      444        3     0.00000   35.93530   31.49553   22.75086
    6482      444        4     0.00000   36.34802   32.40904   23.16095
    6483      444        3     0.00000   35.98998   44.63817    9.63583
    6484      444        4     0.00000   36.41374   45.54116   10.05801
    6485      444        3     0.00000   42.97046   47.34635   22.70907
    6486      444        4     0.00000   42.57404   46.42233   23.11074
    6487      444        3     0.00000   42.91868   34.21633    9.65581
    6488      444        4     0.00000   42.51253   33.29836   10.06590
    6489      444        3     0.00000   29.78261   47.33557    9.64713
    6490      444        4     0.00000   29.36516   46.42732   10.06459
    6491      444        3     0.00000   42.98335   31.52392    3.51942
    6492      444        4     0.00000   42.55932   32.42796    3.10092
    6493      444        3     0.00000   42.94312   44.61661   16.56900
    6494      444        4     0.00000   42.52304   45.51934   16.14261
    6495      444        3     0.00000   29.79576   44.64343    3.45423
    6496      444        4     0.00000   29.38067   45.54931    3.02810
    6497      444        3     0.00000   35.94660   47.43546    3.44003
    6498      444        4     0.00000   36.37141   46.54062    3.00182
    6499      444        3     0.00000   35.92872   34.24025   16.64261
    6500      444        4     0.00000   36.35065   33.33516   16.22279
    6501      444        3     0.00000   49.06269   35.93162    5.25495
    6502      444        4     0.00000   49.51379   36.37115    6.13533
    6503      444        3     0.00000   49.09528   49.10369   18.37813
    6504      444        4     0.00000   49.50669   49.50774   19.29453
    6505      444        3     0.00000   35.93635   35.96474   18.34475
    6506      444        4     0.00000   36.36300   36.39323   19.24301
    6507      444        3     0.00000   49.09370   42.90054   21.10945
    6508      444        4     0.00000   49.52009   42.48019   20.20725
    6509      444        3     0.00000   49.09844   29.69008    7.95603
    6510      444        4     0.00000   49.51563   29.24713    7.06067
    6511      444        3     0.00000   35.94686   29.76369   21.05424
    6512      444        4     0.00000   36.37404   29.33388   20.15677
    6513      444        3     0.00000   29.77131   42.93208    5.17609
    6514      444        4     0.00000   29.34045   42.51779    6.08092
    6515      444        3     0.00000   29.75843   29.75974   18.31609
    6516      444        4     0.00000   29.33993   29.34860   19.22671
    6517      444        3     0.00000   29.79129   35.91689   21.11024
    6518      444        4     0.00000   29.36858   36.34250   20.20909
    6519      444        3     0.00000   29.77394   49.06715    7.94683
    6520      444        4     0.00000   29.34571   49.50064    7.05199
    6521      444        3     0.00000   31.48055   49.07031    9.66895
    6522      444        4     0.00000   32.37223   49.50327   10.10533
    6523      444        3     0.00000   44.65526   49.08740   22.72826
    6524      444        4     0.00000   45.56350   49.50853   23.14308
    6525      444        3     0.00000   44.59374   35.97052    9.68157
    6526      444        4     0.00000   45.48648   36.40532   10.11296
    6527      444        3     0.00000   47.39945   49.14155   16.64655
    6528      444        4     0.00000   46.51013   49.58371   16.21517
    6529      444        3     0.00000   47.27958   35.88009    3.61143
    6530      444        4     0.00000   46.32296   36.24917    3.25681
    6531      444        3     0.00000   34.22606   49.14523    3.47684
    6532      444        4     0.00000   33.31571   49.56978    3.07122
    6533      444        3     0.00000   31.47187   29.74791   16.60212
    6534      444        4     0.00000   32.37670   29.32547   16.18441
    6535      444        3     0.00000   44.66945   29.78524    3.49208
    6536      444        4     0.00000   45.54247   29.33572    3.03993
    6537      444        3     0.00000   47.39130   29.71847    9.68289
    6538      444        4     0.00000   46.49041   29.30339   10.12005
    6539      444        3     0.00000   34.23079   29.77341   22.76716
    6540      444        4     0.00000   33.32938   29.35175   23.19250
    6541      444        3     0.00000   31.47450   35.94713    3.44450
    6542      444        4     0.00000   32.37092   36.37667    3.01549
    6543      444        3     0.00000   44.64185   35.95159   16.60186
    6544      444        4     0.00000   45.54168   36.38351   16.17968
    6545      444        3     0.00000   47.32059   42.94970    3.49287
    6546      444        4     0.00000   46.40550   42.54565    3.07779
    6547      444        3     0.00000   34.21002   42.91026   16.66022
    6548      444        4     0.00000   33.30493   42.48729   16.24619
    6549      444        3     0.00000   34.24420   29.77131    3.51785
    6550      444        4     0.00000   33.31308   29.37936    3.12984
    6551      444        3     0.00000   31.50263   42.94286   22.78951
    6552      444        4     0.00000   32.41824   42.53645   23.20144
    6553      444        3     0.00000   31.49028   29.77998    9.69603
    6554      444        4     0.00000   32.38433   29.35070   10.13504
    6555      444        3     0.00000   44.66603   43.02225    9.62269
    6556      444        4     0.00000   45.54431   42.57772   10.07300
    6557      444        3     0.00000   47.38657   35.94529   22.80028
    6558      444        4     0.00000   46.48332   36.37194   23.22299
    6559      444        3     0.00000   34.25550   35.94187    9.66369
    6560      444        4     0.00000   33.36250   36.37089   10.10139
    6561      444        3     0.00000   35.98130   49.09449   21.06923
    6562      444        4     0.00000   36.39533   49.51379   20.16256
    6563      444        3     0.00000   35.95317   35.93871    7.93185
    6564      444        4     0.00000   36.37325   36.36510    7.02938
    6565      444        3     0.00000   42.86190   49.14260    5.10564
    6566      444        4     0.00000   42.45785   49.54402    6.02650
    6567      444        3     0.00000   42.92472   35.93372   18.31373
    6568      444        4     0.00000   42.49939   36.35196   19.21751
    6569      444        3     0.00000   29.77052   35.93135    5.17083
    6570      444        4     0.00000   29.35281   36.34591    6.08065
    6571      444        3     0.00000   42.91316   29.80154   21.09657
    6572      444        4     0.00000   42.49097   29.36937   20.19752
    6573      444        3     0.00000   42.97073   43.01647    7.89294
    6574      444        4     0.00000   42.54223   42.57562    7.00178
    6575      444        3     0.00000   29.79996   29.78945    7.96129
    6576      444        4     0.00000   29.39566   29.37620    7.04910
    6577      444        3     0.00000   35.99576   29.73766    5.19317
    6578      444        4     0.00000   36.41663   29.32284    6.10221
    6579      444        3     0.00000   35.92688   42.92788   18.37130
    6580      444        4     0.00000   36.35143   42.51595   19.27902
    6581      444        3     0.00000   49.09476   31.50210   16.63288
    6582      444        4     0.00000   49.51720   32.40720   16.21622
    6583      444        3     0.00000   49.06137   44.63869    3.49392
    6584      444        4     0.00000   49.50196   45.53353    3.06964
    6585      444        3     0.00000   36.01363   31.42482    3.44924
    6586      444        4     0.00000   36.44896   32.31335    3.00996
    6587      444        3     0.00000   49.17309   47.41338    9.65055
    6588      444        4     0.00000   49.62945   46.53353   10.08798
    6589      444        3     0.00000   49.11027   34.23762   22.80318
    6590      444        4     0.00000   49.53271   33.33805   23.23114
    6591      444        3     0.00000   35.97184   34.22711    9.65003
    6592      444        4     0.00000   36.40401   33.32964   10.07563
    6593      444        3     0.00000   29.77131   31.49212    9.68183
    6594      444        4     0.00000   29.33809   32.38827   10.10717
    6595      444        3     0.00000   29.77157   44.63738   22.79450
    6596      444        4     0.00000   29.34518   45.54037   23.21248
    6597      444        3     0.00000   29.79339   47.34871   16.64208
    6598      444        4     0.00000   29.37936   46.43731   16.22805
    6599      444        3     0.00000   29.76079   34.23053    3.44109
    6600      444        4     0.00000   29.33335   33.33358    3.00970
    6601      444        3     0.00000   42.81458   47.47700    3.34067
    6602      444        4     0.00000   42.37662   46.58742    2.90034
    6603      444        3     0.00000   42.92630   34.23552   16.58398
    6604      444        4     0.00000   42.50228   33.33963   16.14866
    6605      444        3     0.00000   35.92610   44.61950   16.63393
    6606      444        4     0.00000   36.35222   45.51513   16.19887
    6607      444        3     0.00000   36.00496   47.38946   22.79266
    6608      444        4     0.00000   36.44160   46.49883   23.22536
    6609      444        3     0.00000   42.90290   31.53102   22.79844
    6610      444        4     0.00000   42.46679   32.42902   23.21879
    6611      444        3     0.00000   42.99386   44.77671    9.56249
    6612      444        4     0.00000   42.59402   45.70546    9.95128
    6613      444        3     0.00000   29.76106   42.90054   21.10130
    6614      444        4     0.00000   29.32678   42.45969   20.21171
    6615      444        3     0.00000   29.76631   49.08556   18.33476
    6616      444        4     0.00000   29.33151   49.52141   19.22618
    6617      444        3     0.00000   49.09765   35.94529   21.08237
    6618      444        4     0.00000   49.52167   36.36826   20.17991
    6619      444        3     0.00000   49.09029   49.07136    7.88295
    6620      444        4     0.00000   49.46358   49.45464    6.94079
    6621      444        3     0.00000   49.04902   42.90580    5.19028
    6622      444        4     0.00000   49.46883   42.47283    6.09012
    6623      444        3     0.00000   49.09055   29.77736   18.33555
    6624      444        4     0.00000   49.51720   29.34071   19.23144
    6625      444        3     0.00000   47.37526   29.79523   16.62105
    6626      444        4     0.00000   46.47122   29.37489   16.19729
    6627      444        3     0.00000   44.62870   29.82757   22.80607
    6628      444        4     0.00000   45.52959   29.41301   23.23745
    6629      444        3     0.00000   47.43914   49.10475    9.65844
    6630      444        4     0.00000   46.53510   49.51694   10.08903
    6631      444        3     0.00000   34.27285   49.08845   22.78872
    6632      444        4     0.00000   33.36749   49.50642   23.21327
    6633      444        3     0.00000   31.48502   49.08424   16.62315
    6634      444        4     0.00000   32.38170   49.51457   16.19598
    6635      444        3     0.00000   44.55746   49.16521    3.37694
    6636      444        4     0.00000   45.47544   49.57030    2.97027
    6637      444        3     0.00000   47.35739   42.91132   22.80055
    6638      444        4     0.00000   46.44257   42.49807   23.20722
    6639      444        3     0.00000   34.28021   42.91736    9.64345
    6640      444        4     0.00000   33.39641   42.47651   10.08483
    6641      444        3     0.00000   31.50158   35.91243   22.82605
    6642      444        4     0.00000   32.40352   36.33356   23.25322
    6643      444        3     0.00000   34.21686   35.95659   16.63551
    6644      444        4     0.00000   33.31282   36.37746   16.21201
    6645      444        3     0.00000   31.49895   42.91973    3.47447
    6646      444        4     0.00000   32.39905   42.49097    3.05492
    6647      444        3     0.00000   44.67287   42.91500   16.59871
    6648      444        4     0.00000   45.58953   42.50149   16.19545
    6649      444        3     0.00000   43.00700   29.83177    5.25548
    6650      444        4     0.00000   42.59376   29.41616    6.16872
    6651      444        3     0.00000   42.91894   42.89476   18.27456
    6652      444        4     0.00000   42.47914   42.46311   19.16362
    6653      444        3     0.00000   35.96474   42.94234    7.90057
    6654      444        4     0.00000   36.36431   42.54092    6.97891
    6655      444        3     0.00000   35.96894   49.13971    5.16268
    6656      444        4     0.00000   36.41242   49.56478    6.05437
    6657      444        3     0.00000   42.91657   49.09949   21.03453
    6658      444        4     0.00000   42.48072   49.53008   20.14153
    6659      444        3     0.00000   42.88135   35.95738    7.96786
    6660      444        4     0.00000   42.45312   36.38061    7.06803
    6661      444        3     0.00000   29.78366   34.19793   22.82079
    6662      444        4     0.00000   29.35675   33.29678   23.24455
    6663      444        3     0.00000   29.75238   31.45715   16.58267
    6664      444        4     0.00000   29.32152   32.35094   16.14682
    6665      444        3     0.00000   49.09397   47.40865   16.64392
    6666      444        4     0.00000   49.51799   46.51328   16.20754
    6667      444        3     0.00000   49.06242   34.24341    3.51469
    6668      444        4     0.00000   49.50774   33.37249    3.05203
    6669      444        3     0.00000   49.09370   31.44506    9.62531
    6670      444        4     0.00000   49.50984   32.36225   10.02068
    6671      444        3     0.00000   49.07609   44.62266   22.81527
    6672      444        4     0.00000   49.48907   45.52985   23.23956
    6673      769        5     0.00000   44.11872   38.18791   13.49305
    6674      769        6     0.00000   43.90158   37.80699   14.38080
    6675      769        6     0.00000   43.55668   37.67556   12.85899
    6676      770        5     0.00000   41.14477   51.18806   23.70275
    6677      770        6     0.00000   40.75991   50.27666   23.66305
    6678      770        6     0.00000   41.70444   51.25641   22.88887
    6679      771        5     0.00000   45.20231   41.41659   13.06298
    6680      771        6     0.00000   45.78853   41.19261   12.29722
    6681      771        6     0.00000   45.81771   41.47836   13.83585
    6682      772        5     0.00000   43.34033   38.11193    3.32174
    6683      772        6     0.00000   43.50174   38.00731    2.35040
    6684      772        6     0.00000   42.61006   38.77781    3.38246
    6685      773        5     0.00000   40.04830   38.04595    4.81883
    6686      773        6     0.00000   39.62480   38.36088    3.98130
    6687      773        6     0.00000   39.29726   37.95342    5.45711
    6688      774        5     0.00000   27.36123   41.89976    8.99914
    6689      774        6     0.00000   27.16145   41.35297    8.19920
    6690      774        6     0.00000   28.34808   41.87505    9.07642
    6691      775        5     0.00000   51.97118   51.04611   13.84847
    6692      775        6     0.00000   52.12339   51.83185   14.43153
    6693      775        6     0.00000   52.24457   51.34947   12.94626
    6694      776        5     0.00000   50.33712   39.64557    3.06727
    6695      776        6     0.00000   50.82371   39.24652    2.30335
    6696      776        6     0.00000   50.63523   39.12402    3.85433
    6697      777        5     0.00000   39.05304   42.04566   14.63474
    6698      777        6     0.00000   38.64952   41.34982   15.21254
    6699      777        6     0.00000   38.36377   42.75464   14.58216
    6700      778        5     0.00000   28.86753   38.05594    1.18532
    6701      778        6     0.00000   28.27053   37.36615    0.80126
    6702      778        6     0.00000   28.63488   38.08065    2.14720
    6703      779        5     0.00000   39.41818   41.37926    0.31782
    6704      779        6     0.00000   39.92107   42.07194   -0.17955
    6705      779        6     0.00000   40.11665   40.82038    0.74211
    6706      780        5     0.00000   39.31960   28.57784   22.13993
    6707      780        6     0.00000   38.62376   29.07994   22.63362
    6708      780        6     0.00000   39.55645   29.16380   21.37969
    6709      781        5     0.00000   49.72672   27.43642   22.37232
    6710      781        6     0.00000   48.88656   27.58626   22.87442
    6711      781        6     0.00000   49.47199   26.81944   21.64099
    6712      782        5     0.00000   47.55192   45.97780   19.65573
    6713      782        6     0.00000   47.69545   45.07797   19.26824
    6714      782        6     0.00000   47.17495   45.80456   20.55477
    6715      783        5     0.00000   38.15662   51.60919    4.02336
    6716      783        6     0.00000   38.83827   51.40941    3.33331
    6717      783        6     0.00000   38.46446   51.11656    4.82541
    6718      784        5     0.00000   32.49579   39.16739   11.14292
    6719      784        6     0.00000   31.76840   38.74206   10.62452
    6720      784        6     0.00000   32.17350   39.14847   12.07850
    6721      785        5     0.00000   35.09908   49.90653   14.33400
    6722      785        6     0.00000   34.55413   50.45042   14.95597
    6723      785        6     0.00000   36.01837   50.26062   14.43442
    6724      786        5     0.00000   31.67718   33.81807   17.98566
    6725      786        6     0.00000   31.97739   34.54125   18.59133
    6726      786        6     0.00000   31.59779   34.25156   17.09949
    6727      787        5     0.00000   46.86423   33.69084   18.95147
    6728      787        6     0.00000   46.14289   33.41665   18.33055
    6729      787        6     0.00000   46.71649   33.14221   19.76272
    6730      788        5     0.00000   33.25393   33.67979    5.30280
    6731      788        6     0.00000   33.39720   33.30703    4.39875
    6732      788        6     0.00000   33.81754   34.49288    5.33040
    6733      789        5     0.00000   42.36952   38.02755   22.56843
    6734      789        6     0.00000   41.91711   38.82118   22.95039
    6735      789        6     0.00000   42.66500   38.32013   21.67069
    6736      790        5     0.00000   34.29414   27.61150   25.31157
    6737      790        6     0.00000   34.43662   27.14646   24.44906
    6738      790        6     0.00000   33.31019   27.68247   25.39595
    6739      791        5     0.00000   26.37097   29.87383   15.04667
    6740      791        6     0.00000   26.71061   30.67745   14.57874
    6741      791        6     0.00000   27.18432   29.41879   15.38052
    6742      792        5     0.00000   40.76254   29.45270    9.98414
    6743      792        6     0.00000   40.24704   28.62831    9.79776
    6744      792        6     0.00000   41.60454   29.33993    9.47521
    6745      793        5     0.00000   36.00470   41.02963   25.58864
    6746      793        6     0.00000   36.38561   40.96680   24.67777
    6747      793        6     0.00000   36.64849   40.54120   26.16014
    6748      794        5     0.00000   50.96409   36.64139    0.29626
    6749      794        6     0.00000   50.19675   36.80963   -0.30625
    6750      794        6     0.00000   50.57713   36.13850    1.05651
    6751      795        5     0.00000   50.78428   42.00780    0.35305
    6752      795        6     0.00000   50.78060   41.12348   -0.09174
    6753      795        6     0.00000   51.53086   42.49702   -0.07545
    6754      796        5     0.00000   50.32740   34.64640   11.73255
    6755      796        6     0.00000   50.13628   34.32043   12.64501
    6756      796        6     0.00000   49.46068   34.99156   11.40527
    6757      797        5     0.00000   39.74836   49.56110   15.45229
    6758      797        6     0.00000   40.19762   50.23145   14.87790
    6759      797        6     0.00000   38.78149   49.70858   15.29667
    6760      798        5     0.00000   26.78448   42.58245   17.39339
    6761      798        6     0.00000   27.11071   41.82641   17.94254
    6762      798        6     0.00000   25.84416   42.70995   17.67546
    6763      799        5     0.00000   29.99213   52.31555   10.26595
    6764      799        6     0.00000   29.85727   53.27217   10.05170
    6765      799        6     0.00000   30.28261   52.31187   11.21205
    6766      800        5     0.00000   28.92142   26.37255   15.71806
    6767      800        6     0.00000   29.88855   26.32786   15.92626
    6768      800        6     0.00000   28.47321   26.18222   16.58004
    6769      801        5     0.00000   40.74467   52.33658   17.62025
    6770      801        6     0.00000   41.51306   51.71224   17.63550
    6771      801        6     0.00000   40.05698   51.89784   18.18176
    6772      802        5     0.00000   34.86669   27.78578   14.58295
    6773      802        6     0.00000   35.79702   27.99320   14.84846
    6774      802        6     0.00000   34.66322   26.93169   15.03957
    6775      803        5     0.00000   47.63105   37.91530   14.90813
    6776      803        6     0.00000   48.52221   37.71709   15.29141
    6777      803        6     0.00000   47.64997   38.88822   14.72438
    6778      804        5     0.00000   37.12193   38.62376   12.91288
    6779      804        6     0.00000   36.92109   39.47391   13.37923
    6780      804        6     0.00000   37.68213   38.11561   13.55194
    6781      805        5     0.00000   30.59228   41.30039   25.54106
    6782      805        6     0.00000   30.93981   40.75913   24.78870
    6783      805        6     0.00000   31.36068   41.85743   25.82234
    6784      806        5     0.00000   26.50583   28.00003    9.25676
    6785      806        6     0.00000   26.15278   28.22138    8.35824
    6786      806        6     0.00000   27.47138   27.83652    9.11112
    6787      807        5     0.00000   41.57195   42.55932   22.09629
    6788      807        6     0.00000   41.41738   42.86794   23.02373
    6789      807        6     0.00000   42.50254   42.83009   21.89572
    6790      808        5     0.00000   41.22258   34.71159   24.83970
    6791      808        6     0.00000   41.14056   34.69083   23.85338
    6792      808        6     0.00000   41.69524   33.87275   25.06814
    6793      809        5     0.00000   51.92596   49.45937   25.66225
    6794      809        6     0.00000   51.32292   49.74512   24.93118
    6795      809        6     0.00000   51.82291   50.15705   26.35651
    6796      810        5     0.00000   29.48950   50.79979    4.09224
    6797      810        6     0.00000   29.75948   51.39179    3.34671
    6798      810        6     0.00000   28.58099   51.10604    4.33908
    6799      811        5     0.00000   35.55360   37.76020   26.24715
    6800      811        6     0.00000   35.54571   37.68502   25.26031
    6801      811        6     0.00000   36.32094   37.20369   26.53290
    6802      812        5     0.00000   37.83039   38.70946   23.26532
    6803      812        6     0.00000   38.29043   39.24941   23.95616
    6804      812        6     0.00000   38.11062   39.11482   22.40649
    6805      813        5     0.00000   30.84333   42.32299   11.42262
    6806      813        6     0.00000   30.93455   42.26174   10.43893
    6807      813        6     0.00000   31.52051   41.69366   11.77382
    6808      814        5     0.00000   35.89481   49.14707   10.46258
    6809      814        6     0.00000   36.76889   49.53350   10.72178
    6810      814        6     0.00000   35.30702   49.31899   11.24044
    6811      815        5     0.00000   27.07128   48.20254   14.94309
    6812      815        6     0.00000   27.93589   48.25828   14.46413
    6813      815        6     0.00000   27.16040   48.84555   15.69072
    6814      816        5     0.00000   26.50635   41.86427   22.72983
    6815      816        6     0.00000   26.32313   41.01780   23.20985
    6816      816        6     0.00000   26.41224   41.63215   21.77164
    6817      817        5     0.00000   36.14350   48.83083   17.32504
    6818      817        6     0.00000   35.18898   49.06032   17.45411
    6819      817        6     0.00000   36.24917   47.95439   17.77167
    6820      818        5     0.00000   36.97262   43.53933   23.92909
    6821      818        6     0.00000   36.07094   43.94706   23.92067
    6822      818        6     0.00000   37.49864   44.08034   23.28898
    6823      819        5     0.00000   46.62501   46.51381    7.54463
    6824      819        6     0.00000   46.31797   46.46229    8.47943
    6825      819        6     0.00000   46.26224   47.36817    7.21314
    6826      820        5     0.00000   38.02466   49.99249   24.51163
    6827      820        6     0.00000   37.04911   49.94885   24.67330
    6828      820        6     0.00000   38.41819   50.15758   25.40463
    6829      821        5     0.00000   42.85375   39.64820   10.15370
    6830      821        6     0.00000   42.30091   38.99074   10.64607
    6831      821        6     0.00000   42.49124   40.52937   10.42236
    6832      822        5     0.00000   48.58293   39.69420   25.16357
    6833      822        6     0.00000   48.56821   39.71891   24.17383
    6834      822        6     0.00000   47.63893   39.82959   25.42986
    6835      823        5     0.00000   32.17876   26.82023    1.98921
    6836      823        6     0.00000   31.59753   26.58364    1.22370
    6837      823        6     0.00000   31.56257   26.86203    2.76286
    6838      824        5     0.00000   28.03762   28.66485   12.45232
    6839      824        6     0.00000   28.59493   27.84809   12.47992
    6840      824        6     0.00000   28.60965   29.37094   12.84637
    6841      825        5     0.00000   51.58606   39.79068   18.82082
    6842      825        6     0.00000   50.81661   40.39583   18.96961
    6843      825        6     0.00000   51.73432   39.81329   17.84186
    6844      826        5     0.00000   41.23941   39.25756   15.83820
    6845      826        6     0.00000   42.20838   39.15188   16.01196
    6846      826        6     0.00000   41.18131   40.02280   15.21228
    6847      827        5     0.00000   38.97760   38.14322    1.06571
    6848      827        6     0.00000   38.92739   38.20841    0.07913
    6849      827        6     0.00000   39.22312   37.20001    1.24053
    6850      828        5     0.00000   35.42426   30.29128    9.47127
    6851      828        6     0.00000   34.63851   30.01368    8.93657
    6852      828        6     0.00000   36.19450   29.86200    9.02096
    6853      829        5     0.00000   50.31478   39.95051    9.83930
    6854      829        6     0.00000   50.25248   40.32038   10.75543
    6855      829        6     0.00000   51.25194   40.11796    9.56748
    6856      830        5     0.00000   30.17430   29.44324   24.04212
    6857      830        6     0.00000   30.94007   28.95849   23.64518
    6858      830        6     0.00000   29.40012   28.84545   23.89255
    6859      831        5     0.00000   43.53539   29.79129   12.02093
    6860      831        6     0.00000   43.03408   28.98609   11.73807
    6861      831        6     0.00000   42.83640   30.44927   12.26304
    6862      832        5     0.00000   26.45930   36.28440    3.01549
    6863      832        6     0.00000   25.77476   35.83987    3.57279
    6864      832        6     0.00000   26.29842   37.25127    3.15350
    6865      833        5     0.00000   47.55770   27.79867    1.65745
    6866      833        6     0.00000   46.86896   27.49925    1.01182
    6867      833        6     0.00000   48.37605   27.30787    1.39326
    6868      834        5     0.00000   30.16537   37.46026   14.11029
    6869      834        6     0.00000   30.43876   37.48628   13.15920
    6870      834        6     0.00000   31.01289   37.34564   14.60897
    6871      835        5     0.00000   39.15136   38.48759    9.96942
    6872      835        6     0.00000   38.29017   38.97155    9.89634
    6873      835        6     0.00000   39.07328   37.96683   10.80801
    6874      836        5     0.00000   38.56750   28.84939   15.59293
    6875      836        6     0.00000   37.85458   28.87936   16.27957
    6876      836        6     0.00000   38.76256   29.79996   15.39630
    6877      837        5     0.00000   27.25293   31.01525   25.67066
    6878      837        6     0.00000   27.89067   31.69322   26.00846
    6879      837        6     0.00000   27.33968   30.25606   26.30052
    6880      838        5     0.00000   49.89601   43.40106   10.35875
    6881      838        6     0.00000   49.48303   43.10401    9.50912
    6882      838        6     0.00000   50.83344   43.08666   10.30249
    6883      839        5     0.00000   41.18052   41.67158    3.75128
    6884      839        6     0.00000   41.03331   40.74546    4.06805
    6885      839        6     0.00000   40.98205   42.23756    4.53913
    6886      840        5     0.00000   29.25948   38.39006    8.72601
    6887      840        6     0.00000   29.32363   38.84826    9.60113
    6888      840        6     0.00000   29.25975   39.12428    8.06145
    6889      841        5     0.00000   26.79710   36.46842   17.35790
    6890      841        6     0.00000   27.25766   37.15979   17.89707
    6891      841        6     0.00000   25.91251   36.36484   17.79060
    6892      842        5     0.00000   51.37471   51.39600   20.18569
    6893      842        6     0.00000   52.27165   51.62812   20.53479
    6894      842        6     0.00000   51.49300   51.35341   19.20331
    6895      843        5     0.00000   48.43309   43.11636   15.71780
    6896      843        6     0.00000   48.36579   42.95233   14.74357
    6897      843        6     0.00000   48.93387   43.96678   15.79324
    6898      844        5     0.00000   39.04095   32.26708   25.85389
    6899      844        6     0.00000   39.73942   32.65036   26.43853
    6900      844        6     0.00000   39.43290   32.29048   24.94669
    6901      845        5     0.00000   40.09615   46.23437   24.74533
    6902      845        6     0.00000   39.46970   46.56349   24.05343
    6903      845        6     0.00000   39.95997   46.84372   25.51293
    6904      846        5     0.00000   34.75129   52.31870   11.54381
    6905      846        6     0.00000   34.97316   51.88706   12.40657
    6906      846        6     0.00000   34.00261   51.78112   11.18182
    6907      847        5     0.00000   49.26589   48.91994    0.94190
    6908      847        6     0.00000   48.30218   48.70517    0.88485
    6909      847        6     0.00000   49.33319   49.55821    1.69557
    6910      848        5     0.00000   37.33434   27.05419   24.29160
    6911      848        6     0.00000   38.28517   26.89673   24.51504
    6912      848        6     0.00000   37.21578   26.64252   23.39886
    6913      849        5     0.00000   51.51456   50.52219    9.81958
    6914      849        6     0.00000   51.25694   51.47302    9.91764
    6915      849        6     0.00000   51.00957   50.05137   10.52909
    6916      850        5     0.00000   38.62560   45.39421   12.19075
    6917      850        6     0.00000   38.93974   45.30168   11.25622
    6918      850        6     0.00000   38.63454   44.47150   12.54932
    6919      851        5     0.00000   28.75896   49.91336   12.03407
    6920      851        6     0.00000   29.08362   49.01432   12.29170
    6921      851        6     0.00000   27.82995   49.76457   11.72624
    6922      852        5     0.00000   48.55375   26.52975   15.28273
    6923      852        6     0.00000   49.53508   26.44168   15.18783
    6924      852        6     0.00000   48.18809   25.73007   14.82848
    6925      853        5     0.00000   42.17000   35.17426    1.79993
    6926      853        6     0.00000   41.75044   34.34619    1.45793
    6927      853        6     0.00000   42.23519   35.03520    2.77811
    6928      854        5     0.00000   33.22580   39.97364   14.49778
    6929      854        6     0.00000   34.04046   40.39162   14.87422
    6930      854        6     0.00000   32.49447   40.60219   14.72228
    6931      855        5     0.00000   38.84589   35.38246   14.88421
    6932      855        6     0.00000   38.81566   35.34881   15.87290
    6933      855        6     0.00000   37.90741   35.54019   14.61055
    6934      856        5     0.00000   28.43510   39.27596   24.48823
    6935      856        6     0.00000   27.82127   38.75914   23.90832
    6936      856        6     0.00000   27.84861   39.67869   25.17645
    6937      857        5     0.00000   43.96362   38.50967   25.40620
    6938      857        6     0.00000   43.05748   38.74679   25.72376
    6939      857        6     0.00000   44.24227   37.76073   25.98901
    6940      858        5     0.00000   47.89813   48.28930    3.72789
    6941      858        6     0.00000   48.25854   47.50355    4.20948
    6942      858        6     0.00000   48.40838   49.05716    4.08908
    6943      859        5     0.00000   41.99939   51.83895    9.20970
    6944      859        6     0.00000   42.65370   51.23801    8.77227
    6945      859        6     0.00000   41.78094   52.51402    8.51912
    6946      860        5     0.00000   26.25714   29.42063    3.38562
    6947      860        6     0.00000   26.14884   30.26368    3.89298
    6948      860        6     0.00000   25.75110   28.74818    3.90770
    6949      861        5     0.00000   34.45134   37.18555   13.44416
    6950      861        6     0.00000   34.16481   37.36930   12.51514
    6951      861        6     0.00000   35.13141   36.47157   13.35609
    6952      862        5     0.00000   40.75045   43.06931   11.48177
    6953      862        6     0.00000   40.63715   42.10980   11.26673
    6954      862        6     0.00000   41.63294   43.12425   11.92708
    6955      863        5     0.00000   47.71280   38.17082    1.49578
    6956      863        6     0.00000   47.33347   38.65425    2.27206
    6957      863        6     0.00000   46.95545   37.64296    1.13721
    6958      864        5     0.00000   46.29825   34.09777    7.02518
    6959      864        6     0.00000   46.32165   33.95687    8.00467
    6960      864        6     0.00000   46.36371   35.07936    6.91582
    6961      865        5     0.00000   28.66853   40.02464   12.96072
    6962      865        6     0.00000   28.59624   40.84036   12.40368
    6963      865        6     0.00000   28.94902   39.31592   12.32771
    6964      866        5     0.00000   43.69838   49.71068   16.01669
    6965      866        6     0.00000   43.99359   50.57056   15.62421
    6966      866        6     0.00000   42.71021   49.73934   15.96333
    6967      867        5     0.00000   38.06172   40.51570    5.97314
    6968      867        6     0.00000   38.60063   41.34219    6.05305
    6969      867        6     0.00000   37.33224   40.75361    5.34748
    6970      868        5     0.00000   50.39285   28.08757   12.49990
    6971      868        6     0.00000   49.42625   28.27132   12.61109
    6972      868        6     0.00000   50.42887   27.29867   11.90369
    6973      869        5     0.00000   30.65747   52.16255   23.71642
    6974      869        6     0.00000   30.82729   51.71040   22.85365
    6975      869        6     0.00000   31.20400   51.65967   24.37099
    6976      870        5     0.00000   37.08066   51.74195    8.62848
    6977      870        6     0.00000   37.86089   51.72249    9.23809
    6978      870        6     0.00000   36.51021   52.47170    8.97837
    6979      871        5     0.00000   34.17138   44.54143   21.20855
    6980      871        6     0.00000   33.38064   44.70915   20.63653
    6981      871        6     0.00000   34.29703   43.56010   21.17753
    6982      872        5     0.00000   42.46705   28.39041   14.51486
    6983      872        6     0.00000   42.23598   27.53368   14.07612
    6984      872        6     0.00000   41.70444   28.57521   15.11791
    6985      873        5     0.00000   37.95079   51.98432   20.39783
    6986      873        6     0.00000   37.86903   52.97038   20.37707
    6987      873        6     0.00000   37.50810   51.68254   19.56661
    6988      874        5     0.00000   33.56571   46.30692    6.46183
    6989      874        6     0.00000   33.12696   45.55378    5.99154
    6990      874        6     0.00000   34.51049   46.26644    6.16872
    6991      875        5     0.00000   40.72153   26.38175    1.22580
    6992      875        6     0.00000   40.28700   26.52607    0.34779
    6993      875        6     0.00000   41.19025   27.23348    1.41455
    6994      876        5     0.00000   36.22920   51.20305    1.25025
    6995      876        6     0.00000   36.04124   50.28691    0.92507
    6996      876        6     0.00000   37.19922   51.32791    1.09883
    6997      877        5     0.00000   45.26750   45.37765    4.83671
    6998      877        6     0.00000   44.56509   46.01960    5.10853
    6999      877        6     0.00000   45.20257   44.64421    5.49706
    7000      878        5     0.00000   27.05498   42.64502   14.42969
    7001      878        6     0.00000   27.33784   43.36715   13.81455
    7002      878        6     0.00000   27.89751   42.30328   14.82059
    7003      879        5     0.00000   36.12562   28.19745    1.60882
    7004      879        6     0.00000   36.74891   27.85045    0.92323
    7005      879        6     0.00000   36.48208   27.85755    2.46686
    7006      880        5     0.00000   28.16486   50.80347   24.96168
    7007      880        6     0.00000   27.70193   51.24379   24.20642
    7008      880        6     0.00000   27.93431   51.35394   25.75215
    7009      881        5     0.00000   28.61149   27.93168    5.00390
    7010      881        6     0.00000   28.41932   27.44720    4.16348
    7011      881        6     0.00000   28.38778   27.28737    5.72182
    7012      882        5     0.00000   51.74589   51.84657    5.21184
    7013      882        6     0.00000   50.97802   51.94463    4.59407
    7014      882        6     0.00000   51.47039   51.13181    5.83933
    7015      883        5     0.00000   38.88164   29.74739    1.20924
    7016      883        6     0.00000   39.81434   29.43956    1.32360
    7017      883        6     0.00000   38.52492   29.82835    2.12827
    7018      884        5     0.00000   50.25379   40.48521   14.52643
    7019      884        6     0.00000   50.64706   39.63874   14.85661
    7020      884        6     0.00000   50.57371   41.17290   15.16339
    7021      885        5     0.00000   51.20962   26.81418    0.62039
    7022      885        6     0.00000   52.05635   26.54894    0.18086
    7023      885        6     0.00000   51.46961   27.53920    1.24315
    7024      886        5     0.00000   29.42484   29.84623    2.17532
    7025      886        6     0.00000   29.87226   28.96953    2.28126
    7026      886        6     0.00000   29.75107   30.18824    1.30546
    7027      887        5     0.00000   44.36451   31.31599    8.43290
    7028      887        6     0.00000   44.19863   30.81415    9.26911
    7029      887        6     0.00000   45.27486   31.68533    8.54383
    7030      888        5     0.00000   40.04462   28.22874    4.02704
    7031      888        6     0.00000   40.30014   29.16432    3.84093
    7032      888        6     0.00000   39.68658   28.24871    4.94870
    7033      889        5     0.00000   51.79426   40.85429    5.56594
    7034      889        6     0.00000   52.23485   41.73914    5.51178
    7035      889        6     0.00000   51.90152   40.57537    6.50862
    7036      890        5     0.00000   39.72890   34.12222   11.07825
    7037      890        6     0.00000   40.51307   34.66060   11.35296
    7038      890        6     0.00000   39.10115   34.19162   11.84086
    7039      891        5     0.00000   39.68763   44.80247    1.58569
    7040      891        6     0.00000   40.10745   44.81850    2.48210
    7041      891        6     0.00000   38.99153   44.10163    1.65062
    7042      892        5     0.00000   29.99581   41.46574   16.76537
    7043      892        6     0.00000   30.87514   41.87189   16.56585
    7044      892        6     0.00000   29.81626   41.71469   17.70622
    7045      893        5     0.00000   45.55378   51.41808   26.07497
    7046      893        6     0.00000   46.49331   51.18228   26.28028
    7047      893        6     0.00000   45.34058   50.90074   25.25820
    7048      894        5     0.00000   26.49952   46.95597    1.75340
    7049      894        6     0.00000   27.28973   47.10318    1.17481
    7050      894        6     0.00000   26.08548   47.85108    1.84147
    7051      895        5     0.00000   26.77186   33.76996   14.02013
    7052      895        6     0.00000   25.94248   33.23080   14.05456
    7053      895        6     0.00000   26.51450   34.64693   14.40130
    7054      896        5     0.00000   51.57265   37.33171   12.27251
    7055      896        6     0.00000   50.95699   37.03807   12.98911
    7056      896        6     0.00000   51.19253   38.18791   11.95363
    7057      444        1     0.00000   34.58173   32.70741   51.23196
    7058      444        1     0.00000   34.61170   45.87028   38.10720
    7059      444        1     0.00000   47.73541   32.69873   38.08906
    7060      444        1     0.00000   47.68467   45.85030   51.24695
    7061      444        1     0.00000   44.32061   46.14368   51.19674
    7062      444        1     0.00000   44.32613   32.99683   38.09932
    7063      444        1     0.00000   31.15458   46.10819   38.10326
    7064      444        1     0.00000   31.16746   32.95977   51.26824
    7065      444        1     0.00000   44.32350   32.70057   27.59756
    7066      444        1     0.00000   44.36162   45.87554   40.74046
    7067      444        1     0.00000   31.16615   32.70372   40.74309
    7068      444        1     0.00000   31.19848   45.85556   27.58600
    7069      444        1     0.00000   34.55413   46.21649   27.59020
    7070      444        1     0.00000   34.55650   33.02181   40.76070
    7071      444        1     0.00000   47.71254   46.21124   40.75045
    7072      444        1     0.00000   47.68704   33.02470   27.62648
    7073      444        1     0.00000   51.24958   34.55860   32.74184
    7074      444        1     0.00000   51.26167   47.72016   45.87975
    7075      444        1     0.00000   38.11430   34.60145   45.85898
    7076      444        1     0.00000   38.12534   47.75775   32.65956
    7077      444        1     0.00000   51.24484   44.29853   46.16182
    7078      444        1     0.00000   51.26167   31.08018   32.96319
    7079      444        1     0.00000   38.14611   44.30720   32.97055
    7080      444        1     0.00000   38.11167   31.14459   46.10293
    7081      444        1     0.00000   27.59152   44.30747   32.64852
    7082      444        1     0.00000   27.60703   31.15248   45.82743
    7083      444        1     0.00000   40.75991   44.27908   45.79247
    7084      444        1     0.00000   40.80723   31.17745   32.73080
    7085      444        1     0.00000   27.63095   34.54572   46.15919
    7086      444        1     0.00000   27.62359   47.67206   32.99053
    7087      444        1     0.00000   40.75439   34.55755   32.99999
    7088      444        1     0.00000   40.78699   47.69282   46.06744
    7089      444        1     0.00000   32.71503   51.24695   34.59461
    7090      444        1     0.00000   32.72712   38.09800   47.73935
    7091      444        1     0.00000   45.82218   51.29216   47.67048
    7092      444        1     0.00000   45.79510   38.15294   34.59014
    7093      444        1     0.00000   46.18784   51.29873   44.31588
    7094      444        1     0.00000   46.12422   38.09905   31.22950
    7095      444        1     0.00000   33.00893   51.28349   31.17561
    7096      444        1     0.00000   32.98921   38.11561   44.30247
    7097      444        1     0.00000   32.70346   27.59152   44.27382
    7098      444        1     0.00000   32.70609   40.74414   31.13723
    7099      444        1     0.00000   45.89289   27.60519   31.13670
    7100      444        1     0.00000   45.87344   40.74072   44.27776
    7101      444        1     0.00000   46.15130   27.54578   34.60197
    7102      444        1     0.00000   46.13080   40.74730   47.70912
    7103      444        1     0.00000   33.01024   27.59546   47.69098
    7104      444        1     0.00000   33.03416   40.75545   34.53284
    7105      444        1     0.00000   32.72844   34.54861   27.59493
    7106      444        1     0.00000   32.74000   47.70597   40.75439
    7107      444        1     0.00000   45.87501   34.57989   40.71891
    7108      444        1     0.00000   45.80167   47.75933   27.52606
    7109      444        1     0.00000   46.10556   44.33034   27.62779
    7110      444        1     0.00000   46.17654   31.16273   40.73152
    7111      444        1     0.00000   32.99342   44.25279   40.74467
    7112      444        1     0.00000   33.03653   31.11856   27.61360
    7113      444        1     0.00000   32.71845   44.33586   51.24405
    7114      444        1     0.00000   32.71503   31.18402   38.11824
    7115      444        1     0.00000   45.88947   44.39685   38.06251
    7116      444        1     0.00000   45.84347   31.19638   51.25142
    7117      444        1     0.00000   46.18889   34.57937   51.27061
    7118      444        1     0.00000   46.25724   47.74119   38.13507
    7119      444        1     0.00000   33.04126   34.56412   38.12166
    7120      444        1     0.00000   33.05887   47.69992   51.23380
    7121      444        1     0.00000   34.58200   51.25036   46.12238
    7122      444        1     0.00000   34.57174   38.10589   32.99815
    7123      444        1     0.00000   47.69677   51.19910   32.94163
    7124      444        1     0.00000   47.71674   38.11456   46.14473
    7125      444        1     0.00000   44.27145   51.27350   32.67086
    7126      444        1     0.00000   44.29038   38.10563   45.84321
    7127      444        1     0.00000   31.15432   51.24563   45.85241
    7128      444        1     0.00000   31.17508   38.10379   32.68585
    7129      444        1     0.00000   44.31772   27.63857   46.17259
    7130      444        1     0.00000   44.30037   40.79093   33.02601
    7131      444        1     0.00000   31.16220   27.60755   33.04363
    7132      444        1     0.00000   31.13907   40.73047   46.17286
    7133      444        1     0.00000   34.57989   27.61491   32.75262
    7134      444        1     0.00000   34.56491   40.74993   45.88921
    7135      444        1     0.00000   47.68178   27.64120   45.84478
    7136      444        1     0.00000   47.65944   40.74756   32.68506
    7137      444        1     0.00000   51.26614   32.71424   44.29616
    7138      444        1     0.00000   51.25720   45.81823   31.14643
    7139      444        1     0.00000   38.16136   32.67218   31.11304
    7140      444        1     0.00000   38.10142   45.85477   44.27172
    7141      444        1     0.00000   51.25956   46.15787   34.50681
    7142      444        1     0.00000   51.27665   33.00893   47.70439
    7143      444        1     0.00000   38.14900   46.14788   47.67626
    7144      444        1     0.00000   38.13060   33.00236   34.54388
    7145      444        1     0.00000   27.61176   32.72029   34.58042
    7146      444        1     0.00000   27.59940   45.84636   47.72279
    7147      444        1     0.00000   40.74072   32.74736   47.70886
    7148      444        1     0.00000   40.79961   45.95230   34.48683
    7149      444        1     0.00000   27.60045   46.13947   44.30273
    7150      444        1     0.00000   27.60650   32.96766   31.11646
    7151      444        1     0.00000   40.73047   46.18337   31.07466
    7152      444        1     0.00000   40.75255   32.98947   44.24806
    7153      444        1     0.00000   44.24201   46.19730   27.53368
    7154      444        1     0.00000   44.32377   33.00446   40.72679
    7155      444        1     0.00000   31.17666   46.14394   40.74335
    7156      444        1     0.00000   31.16588   32.98658   27.59178
    7157      444        1     0.00000   34.61091   32.67165   27.59309
    7158      444        1     0.00000   34.55755   45.81639   40.74730
    7159      444        1     0.00000   47.73252   32.73396   40.74572
    7160      444        1     0.00000   47.67363   45.89210   27.61991
    7161      444        1     0.00000   34.62458   46.14052   51.24379
    7162      444        1     0.00000   34.60355   32.99999   38.12666
    7163      444        1     0.00000   47.80349   46.16418   38.11851
    7164      444        1     0.00000   47.73751   32.99894   51.26587
    7165      444        1     0.00000   44.30983   32.78627   51.22460
    7166      444        1     0.00000   44.32350   45.95651   38.09012
    7167      444        1     0.00000   31.15142   32.74789   38.11220
    7168      444        1     0.00000   31.15432   45.89894   51.23591
    7169      444        1     0.00000   27.59309   44.28617   46.15682
    7170      444        1     0.00000   27.62517   31.15721   33.01550
    7171      444        1     0.00000   40.79672   44.37187   32.94373
    7172      444        1     0.00000   40.74940   31.18323   46.14631
    7173      444        1     0.00000   27.60335   34.52863   32.68112
    7174      444        1     0.00000   27.61307   47.70018   45.86818
    7175      444        1     0.00000   40.75282   34.55387   45.81008
    7176      444        1     0.00000   40.72285   47.76091   32.62618
    7177      444        1     0.00000   51.27876   34.57726   46.14683
    7178      444        1     0.00000   51.27350   47.72463   32.94610
    7179      444        1     0.00000   38.12508   34.56202   32.98133
    7180      444        1     0.00000   38.14900   47.71622   46.11975
    7181      444        1     0.00000   51.24116   44.25831   32.71345
    7182      444        1     0.00000   51.26325   31.14853   45.85740
    7183      444        1     0.00000   38.12587   44.28880   45.83295
    7184      444        1     0.00000   38.15531   31.12119   32.69216
    7185      444        1     0.00000   46.12554   27.64199   44.27382
    7186      444        1     0.00000   46.09504   40.74493   31.12435
    7187      444        1     0.00000   33.01182   27.62096   31.19480
    7188      444        1     0.00000   32.99683   40.74861   44.33060
    7189      444        1     0.00000   32.72107   27.60361   34.60986
    7190      444        1     0.00000   32.70635   40.73967   47.73173
    7191      444        1     0.00000   45.87396   27.64015   47.74040
    7192      444        1     0.00000   45.86897   40.79803   34.58568
    7193      444        1     0.00000   46.17443   51.24774   34.54388
    7194      444        1     0.00000   46.14604   38.10747   47.70018
    7195      444        1     0.00000   33.02654   51.24852   47.69098
    7196      444        1     0.00000   33.00893   38.11009   34.56018
    7197      444        1     0.00000   32.71056   51.24511   44.28197
    7198      444        1     0.00000   32.73290   38.09669   31.12014
    7199      444        1     0.00000   45.83006   51.26693   31.10384
    7200      444        1     0.00000   45.86371   38.10747   44.29196
    7201      444        1     0.00000   46.13474   44.27750   51.26272
    7202      444        1     0.00000   46.16839   31.14117   38.10852
    7203      444        1     0.00000   33.05677   44.30089   38.10326
    7204      444        1     0.00000   33.02339   31.14117   51.24064
    7205      444        1     0.00000   32.73422   34.52101   51.25667
    7206      444        1     0.00000   32.71056   47.67994   38.11299
    7207      444        1     0.00000   45.87633   34.57306   38.08959
    7208      444        1     0.00000   45.88106   47.71228   51.20541
    7209      444        1     0.00000   46.14447   34.60592   27.60939
    7210      444        1     0.00000   46.14972   47.77247   40.76097
    7211      444        1     0.00000   32.99184   34.58436   40.75623
    7212      444        1     0.00000   32.98527   47.77537   27.58074
    7213      444        1     0.00000   32.76498   44.29721   27.59783
    7214      444        1     0.00000   32.73080   31.14170   40.74756
    7215      444        1     0.00000   45.90525   44.29669   40.70655
    7216      444        1     0.00000   45.88527   31.13171   27.59493
    7217      444        1     0.00000   44.37371   27.65540   32.74211
    7218      444        1     0.00000   44.29748   40.74598   45.82796
    7219      444        1     0.00000   31.14748   27.59204   45.84347
    7220      444        1     0.00000   31.15064   40.74966   32.70741
    7221      444        1     0.00000   34.56727   27.59861   46.12107
    7222      444        1     0.00000   34.59251   40.75387   32.96660
    7223      444        1     0.00000   47.71149   27.54210   33.03469
    7224      444        1     0.00000   47.70123   40.74782   46.15367
    7225      444        1     0.00000   34.57647   51.26219   32.73369
    7226      444        1     0.00000   34.55544   38.11299   45.86397
    7227      444        1     0.00000   47.74014   51.29689   45.88842
    7228      444        1     0.00000   47.69046   38.10720   32.79074
    7229      444        1     0.00000   44.26803   51.28822   46.09715
    7230      444        1     0.00000   44.23176   38.14690   33.02891
    7231      444        1     0.00000   31.15826   51.26193   33.02523
    7232      444        1     0.00000   31.16273   38.09248   46.17759
    7233      444        1     0.00000   27.60335   46.10898   34.55334
    7234      444        1     0.00000   27.62385   32.97160   47.71175
    7235      444        1     0.00000   40.78436   46.13789   47.63920
    7236      444        1     0.00000   40.74256   32.99762   34.57043
    7237      444        1     0.00000   27.61675   32.72186   44.27014
    7238      444        1     0.00000   27.60703   45.87554   31.08938
    7239      444        1     0.00000   40.80750   32.73685   31.16693
    7240      444        1     0.00000   40.73994   45.82980   44.21783
    7241      444        1     0.00000   51.25089   46.15892   44.31430
    7242      444        1     0.00000   51.24931   33.00682   31.16615
    7243      444        1     0.00000   38.11351   46.18521   31.10910
    7244      444        1     0.00000   38.11325   33.03837   44.29485
    7245      444        1     0.00000   51.26062   32.64116   34.52837
    7246      444        1     0.00000   51.24984   45.85766   47.72831
    7247      444        1     0.00000   38.10641   32.70767   47.66653
    7248      444        1     0.00000   38.13454   45.88159   34.52548
    7249      444        2     0.00000   33.65824   33.59856   26.29079
    7250      444        2     0.00000   33.62801   46.74146   39.43106
    7251      444        2     0.00000   46.80561   33.63984   39.40582
    7252      444        2     0.00000   46.74567   46.76985   26.26924
    7253      444        2     0.00000   45.21466   45.23701   26.27292
    7254      444        2     0.00000   45.29773   32.12539   39.41660
    7255      444        2     0.00000   32.11829   45.22465   39.42370
    7256      444        2     0.00000   32.12618   32.06230   26.29710
    7257      444        2     0.00000   45.22518   33.67007   26.29079
    7258      444        2     0.00000   45.30877   46.80009   39.43054
    7259      444        2     0.00000   32.11251   33.62406   39.43316
    7260      444        2     0.00000   32.13065   46.77669   26.26529
    7261      444        2     0.00000   33.63405   45.28012   26.27449
    7262      444        2     0.00000   33.62144   32.11540   39.43842
    7263      444        2     0.00000   46.79141   45.30141   39.41213
    7264      444        2     0.00000   46.74988   32.12276   26.29211
    7265      444        2     0.00000   26.28711   33.58200   33.60330
    7266      444        2     0.00000   26.28737   46.75540   46.77432
    7267      444        2     0.00000   39.42870   33.62590   46.73542
    7268      444        2     0.00000   39.43343   46.81612   33.57596
    7269      444        2     0.00000   26.27870   45.25120   45.26487
    7270      444        2     0.00000   26.28580   32.07019   32.09174
    7271      444        2     0.00000   39.43790   45.27565   32.05205
    7272      444        2     0.00000   39.43132   32.11777   45.22728
    7273      444        2     0.00000   26.27791   45.23438   33.57780
    7274      444        2     0.00000   26.29894   32.10594   46.73883
    7275      444        2     0.00000   39.45419   45.24358   46.70466
    7276      444        2     0.00000   39.44815   32.08570   33.60409
    7277      444        2     0.00000   26.30420   33.62222   45.23490
    7278      444        2     0.00000   26.29526   46.74567   32.07098
    7279      444        2     0.00000   39.44578   33.61618   32.06992
    7280      444        2     0.00000   39.44394   46.74830   45.19495
    7281      444        2     0.00000   33.64956   26.28553   33.67349
    7282      444        2     0.00000   33.61355   39.42554   46.77958
    7283      444        2     0.00000   46.75119   26.32313   46.75645
    7284      444        2     0.00000   46.72175   39.45130   33.63037
    7285      444        2     0.00000   45.24910   26.32313   45.23832
    7286      444        2     0.00000   45.21256   39.44552   32.12644
    7287      444        2     0.00000   32.13249   26.29815   32.15457
    7288      444        2     0.00000   32.10094   39.42212   45.27355
    7289      444        2     0.00000   33.61539   26.27738   45.22491
    7290      444        2     0.00000   33.63090   39.42528   32.07518
    7291      444        2     0.00000   46.76249   26.25872   32.07466
    7292      444        2     0.00000   46.75645   39.42738   45.24884
    7293      444        2     0.00000   45.26224   26.26871   33.59173
    7294      444        2     0.00000   45.24253   39.42633   46.74436
    7295      444        2     0.00000   32.11645   26.27660   46.73726
    7296      444        2     0.00000   32.12802   39.42975   33.58568
    7297      444        3     0.00000   34.78757   30.93271   49.62551
    7298      444        3     0.00000   34.10855   31.61698   50.75825
    7299      444        3     0.00000   34.83804   44.07850   36.50680
    7300      444        3     0.00000   34.14903   44.77303   37.63297
    7301      444        3     0.00000   44.11609   47.91627   49.58240
    7302      444        3     0.00000   44.79800   47.23357   50.71830
    7303      444        3     0.00000   44.06536   34.79020   36.52493
    7304      444        3     0.00000   44.77960   34.09698   37.62929
    7305      444        3     0.00000   30.94112   34.75260   49.68387
    7306      444        3     0.00000   31.63565   34.05387   50.79558
    7307      444        3     0.00000   44.11451   30.94007   29.20638
    7308      444        3     0.00000   44.79484   31.60726   28.06891
    7309      444        3     0.00000   44.11557   44.06798   42.30091
    7310      444        3     0.00000   44.81771   44.76829   41.19156
    7311      444        3     0.00000   30.91799   30.90327   42.30959
    7312      444        3     0.00000   31.62829   31.60410   41.20733
    7313      444        3     0.00000   34.78099   47.99776   29.17116
    7314      444        3     0.00000   34.08200   47.31139   28.05445
    7315      444        3     0.00000   34.77311   34.79913   42.35322
    7316      444        3     0.00000   34.08384   34.11302   41.23152
    7317      444        3     0.00000   49.63708   34.78257   30.96925
    7318      444        3     0.00000   50.77114   34.09304   31.64748
    7319      444        3     0.00000   36.51074   34.80807   44.07955
    7320      444        3     0.00000   37.63954   34.12905   44.76724
    7321      444        3     0.00000   49.66310   44.06220   47.95439
    7322      444        3     0.00000   50.77850   44.76225   47.25986
    7323      444        3     0.00000   49.67072   30.86252   34.76733
    7324      444        3     0.00000   50.79033   31.54732   34.06018
    7325      444        3     0.00000   36.55622   44.08533   34.75918
    7326      444        3     0.00000   37.67424   44.77907   34.06360
    7327      444        3     0.00000   29.20218   44.08612   30.88933
    7328      444        3     0.00000   28.07232   44.77907   31.56099
    7329      444        3     0.00000   42.34665   44.05063   44.00016
    7330      444        3     0.00000   41.21943   44.73964   44.68917
    7331      444        3     0.00000   42.42473   30.97898   30.97635
    7332      444        3     0.00000   41.28962   31.65510   31.64853
    7333      444        3     0.00000   29.21453   34.75760   47.95097
    7334      444        3     0.00000   28.09808   34.06807   47.25171
    7335      444        3     0.00000   42.32825   34.78389   34.79887
    7336      444        3     0.00000   41.21575   34.09015   34.10014
    7337      444        3     0.00000   30.92798   49.64785   34.79782
    7338      444        3     0.00000   31.62224   50.77850   34.11617
    7339      444        3     0.00000   30.94585   36.49339   47.95912
    7340      444        3     0.00000   31.63486   37.62061   47.27038
    7341      444        3     0.00000   47.95780   49.70201   44.09900
    7342      444        3     0.00000   47.27695   50.82687   44.79038
    7343      444        3     0.00000   47.87789   36.48261   31.02340
    7344      444        3     0.00000   47.21044   37.62061   31.70715
    7345      444        3     0.00000   34.79913   49.71042   30.91772
    7346      444        3     0.00000   34.10592   50.81083   31.63276
    7347      444        3     0.00000   30.91168   29.17641   44.04748
    7348      444        3     0.00000   31.60831   28.06023   44.74437
    7349      444        3     0.00000   30.92929   42.34770   30.91667
    7350      444        3     0.00000   31.61514   41.22048   31.61041
    7351      444        3     0.00000   47.94729   29.12252   34.82253
    7352      444        3     0.00000   47.24961   28.00634   34.13589
    7353      444        3     0.00000   47.92731   42.32983   47.94361
    7354      444        3     0.00000   47.23016   41.21601   47.24698
    7355      444        3     0.00000   34.81938   42.35454   34.75655
    7356      444        3     0.00000   34.12616   41.22942   34.06202
    7357      444        3     0.00000   30.92009   34.78836   29.15906
    7358      444        3     0.00000   31.62724   34.08594   28.05497
    7359      444        3     0.00000   30.94165   47.91890   42.34350
    7360      444        3     0.00000   31.64248   47.23515   41.22100
    7361      444        3     0.00000   47.88735   44.10715   29.21690
    7362      444        3     0.00000   47.19835   44.80378   28.09914
    7363      444        3     0.00000   47.94124   30.94796   42.33850
    7364      444        3     0.00000   47.26223   31.63749   41.21286
    7365      444        3     0.00000   34.83068   30.89354   29.19298
    7366      444        3     0.00000   34.13773   31.58307   28.07259
    7367      444        3     0.00000   30.93770   44.09769   49.65153
    7368      444        3     0.00000   31.62513   44.80194   50.76877
    7369      444        3     0.00000   30.92877   30.94217   36.54570
    7370      444        3     0.00000   31.61935   31.64879   37.65084
    7371      444        3     0.00000   47.95570   34.79282   49.66836
    7372      444        3     0.00000   47.27511   34.09935   50.79611
    7373      444        3     0.00000   48.02510   47.96569   36.53203
    7374      444        3     0.00000   47.34687   47.26906   37.65926
    7375      444        3     0.00000   34.82043   34.78520   36.52441
    7376      444        3     0.00000   34.13563   34.09409   37.65190
    7377      444        3     0.00000   34.82332   49.66652   47.91680
    7378      444        3     0.00000   34.12169   50.78113   47.22148
    7379      444        3     0.00000   34.79992   36.51521   34.78625
    7380      444        3     0.00000   34.10382   37.63665   34.09435
    7381      444        3     0.00000   44.01331   49.72330   30.83860
    7382      444        3     0.00000   44.72597   50.81398   31.56230
    7383      444        3     0.00000   44.08113   36.51652   44.05063
    7384      444        3     0.00000   44.76645   37.63533   44.75173
    7385      444        3     0.00000   30.92693   36.51389   30.89748
    7386      444        3     0.00000   31.63538   37.62955   31.59043
    7387      444        3     0.00000   44.07508   29.23583   47.94703
    7388      444        3     0.00000   44.77933   28.11123   47.26775
    7389      444        3     0.00000   44.11346   42.43551   34.75944
    7390      444        3     0.00000   44.78354   41.28068   34.10513
    7391      444        3     0.00000   30.94375   29.20586   34.82200
    7392      444        3     0.00000   31.63013   28.07863   34.13747
    7393      444        3     0.00000   34.81464   29.18693   30.95111
    7394      444        3     0.00000   34.11170   28.08336   31.65641
    7395      444        3     0.00000   34.77179   42.34586   44.10742
    7396      444        3     0.00000   34.08962   41.22284   44.79879
    7397      444        3     0.00000   49.67020   30.93481   44.07245
    7398      444        3     0.00000   50.79295   31.62014   44.76435
    7399      444        3     0.00000   36.58802   30.87304   30.89669
    7400      444        3     0.00000   37.69895   31.57571   31.58623
    7401      444        3     0.00000   49.69806   47.94519   34.74551
    7402      444        3     0.00000   50.80110   47.25460   34.04046
    7403      444        3     0.00000   36.56910   47.94440   47.91758
    7404      444        3     0.00000   37.68318   47.24856   47.21675
    7405      444        3     0.00000   36.53571   34.78336   34.77390
    7406      444        3     0.00000   37.65637   34.09409   34.07622
    7407      444        3     0.00000   29.21006   30.93744   34.80728
    7408      444        3     0.00000   28.08941   31.62697   34.11249
    7409      444        3     0.00000   42.33035   30.96110   47.93625
    7410      444        3     0.00000   41.21312   31.65195   47.24251
    7411      444        3     0.00000   29.20454   47.91627   44.07797
    7412      444        3     0.00000   28.08021   47.22963   44.77197
    7413      444        3     0.00000   29.18982   34.77626   30.89275
    7414      444        3     0.00000   28.07416   34.06728   31.58491
    7415      444        3     0.00000   42.27094   48.00486   30.81415
    7416      444        3     0.00000   41.18210   47.29219   31.52682
    7417      444        3     0.00000   43.98202   48.02615   29.06758
    7418      444        3     0.00000   44.69626   47.30665   27.98032
    7419      444        3     0.00000   44.08560   34.79756   42.30564
    7420      444        3     0.00000   44.78275   34.10592   41.19025
    7421      444        3     0.00000   34.77022   44.05326   42.35375
    7422      444        3     0.00000   34.08437   44.72597   41.22100
    7423      444        3     0.00000   34.84303   47.93546   49.65285
    7424      444        3     0.00000   34.15587   47.23462   50.76956
    7425      444        3     0.00000   44.06720   30.98713   49.65679
    7426      444        3     0.00000   44.76225   31.68165   50.76903
    7427      444        3     0.00000   44.12398   44.20048   36.45632
    7428      444        3     0.00000   44.79931   44.87529   37.59354
    7429      444        3     0.00000   29.18851   44.06273   47.93835
    7430      444        3     0.00000   28.06628   44.75147   47.25119
    7431      444        3     0.00000   42.40922   44.19180   34.71159
    7432      444        3     0.00000   41.27831   44.86162   34.02259
    7433      444        3     0.00000   42.34902   34.78152   44.03197
    7434      444        3     0.00000   41.22547   34.08437   44.71677
    7435      444        3     0.00000   49.68177   34.79414   47.93231
    7436      444        3     0.00000   50.80610   34.10540   47.24014
    7437      444        3     0.00000   49.63813   44.05957   30.92850
    7438      444        3     0.00000   50.77298   44.73070   31.61882
    7439      444        3     0.00000   36.50312   44.07429   44.08244
    7440      444        3     0.00000   37.63533   44.76225   44.75016
    7441      444        3     0.00000   47.92705   29.21637   44.06299
    7442      444        3     0.00000   47.22095   28.10755   44.74779
    7443      444        3     0.00000   47.88551   42.34534   30.91536
    7444      444        3     0.00000   47.19072   41.21759   31.59254
    7445      444        3     0.00000   30.92824   42.34061   47.94151
    7446      444        3     0.00000   31.61251   41.20970   47.26144
    7447      444        3     0.00000   47.95754   49.65784   34.75918
    7448      444        3     0.00000   47.25197   50.75747   34.05703
    7449      444        3     0.00000   47.93888   36.51941   47.92810
    7450      444        3     0.00000   47.24488   37.64007   47.23620
    7451      444        3     0.00000   30.92298   49.65995   44.06457
    7452      444        3     0.00000   31.61698   50.77692   44.75462
    7453      444        3     0.00000   47.91627   44.06273   49.66967
    7454      444        3     0.00000   47.22253   44.75094   50.78691
    7455      444        3     0.00000   47.94729   30.89144   36.51573
    7456      444        3     0.00000   47.26170   31.60042   37.63008
    7457      444        3     0.00000   30.93061   47.90155   36.51941
    7458      444        3     0.00000   31.61987   47.20755   37.63849
    7459      444        3     0.00000   47.88026   34.77942   29.26054
    7460      444        3     0.00000   47.21570   34.11591   28.10466
    7461      444        3     0.00000   47.94151   47.97936   42.35717
    7462      444        3     0.00000   47.24383   47.30113   41.23047
    7463      444        3     0.00000   30.95742   44.07929   29.18062
    7464      444        3     0.00000   31.66562   44.76435   28.06338
    7465      444        3     0.00000   44.14317   29.24003   30.96399
    7466      444        3     0.00000   44.82902   28.11097   31.63644
    7467      444        3     0.00000   44.09217   42.33062   44.02908
    7468      444        3     0.00000   44.77539   41.21286   44.73465
    7469      444        3     0.00000   34.79151   29.19087   47.90365
    7470      444        3     0.00000   34.10172   28.06812   47.21754
    7471      444        3     0.00000   34.77810   36.53440   44.07508
    7472      444        3     0.00000   34.08594   37.64795   44.76777
    7473      444        3     0.00000   44.06904   49.67940   47.87789
    7474      444        3     0.00000   44.73701   50.81477   47.19204
    7475      444        3     0.00000   44.02382   36.54991   34.81964
    7476      444        3     0.00000   44.70231   37.67897   34.12590
    7477      444        3     0.00000   29.20428   47.89813   34.78257
    7478      444        3     0.00000   28.08494   47.20255   34.08752
    7479      444        3     0.00000   42.37189   47.92126   47.85922
    7480      444        3     0.00000   41.25676   47.22805   47.16444
    7481      444        3     0.00000   29.18272   30.91247   44.03565
    7482      444        3     0.00000   28.07574   31.61882   44.73202
    7483      444        3     0.00000   49.66810   47.95202   44.09716
    7484      444        3     0.00000   50.78612   47.25460   44.78538
    7485      444        3     0.00000   36.53413   47.98409   30.88197
    7486      444        3     0.00000   37.65137   47.28536   31.57019
    7487      444        3     0.00000   36.51547   30.92745   47.88893
    7488      444        3     0.00000   37.63691   31.61409   47.19624
    7489      444        3     0.00000   35.93530   31.49553   49.03876
    7490      444        4     0.00000   36.34802   32.40904   49.44885
    7491      444        3     0.00000   35.98998   44.63817   35.92373
    7492      444        4     0.00000   36.41374   45.54116   36.34591
    7493      444        3     0.00000   42.97046   47.34635   48.99697
    7494      444        4     0.00000   42.57404   46.42233   49.39864
    7495      444        3     0.00000   42.91868   34.21633   35.94371
    7496      444        4     0.00000   42.51253   33.29836   36.35380
    7497      444        3     0.00000   29.78261   47.33557   35.93503
    7498      444        4     0.00000   29.36516   46.42732   36.35249
    7499      444        3     0.00000   42.98335   31.52392   29.80732
    7500      444        4     0.00000   42.55932   32.42796   29.38882
    7501      444        3     0.00000   42.94312   44.61661   42.85690
    7502      444        4     0.00000   42.52304   45.51934   42.43051
    7503      444        3     0.00000   29.79576   44.64343   29.74213
    7504      444        4     0.00000   29.38067   45.54931   29.31600
    7505      444        3     0.00000   35.94660   47.43546   29.72793
    7506      444        4     0.00000   36.37141   46.54062   29.28972
    7507      444        3     0.00000   35.92872   34.24025   42.93051
    7508      444        4     0.00000   36.35065   33.33516   42.51069
    7509      444        3     0.00000   49.06269   35.93162   31.54285
    7510      444        4     0.00000   49.51379   36.37115   32.42323
    7511      444        3     0.00000   49.09528   49.10369   44.66603
    7512      444        4     0.00000   49.50669   49.50774   45.58243
    7513      444        3     0.00000   35.93635   35.96474   44.63265
    7514      444        4     0.00000   36.36300   36.39323   45.53091
    7515      444        3     0.00000   49.09370   42.90054   47.39735
    7516      444        4     0.00000   49.52009   42.48019   46.49515
    7517      444        3     0.00000   49.09844   29.69008   34.24393
    7518      444        4     0.00000   49.51563   29.24713   33.34857
    7519      444        3     0.00000   35.94686   29.76369   47.34214
    7520      444        4     0.00000   36.37404   29.33388   46.44467
    7521      444        3     0.00000   29.77131   42.93208   31.46399
    7522      444        4     0.00000   29.34045   42.51779   32.36882
    7523      444        3     0.00000   29.75843   29.75974   44.60399
    7524      444        4     0.00000   29.33993   29.34860   45.51461
    7525      444        3     0.00000   29.79129   35.91689   47.39814
    7526      444        4     0.00000   29.36858   36.34250   46.49699
    7527      444        3     0.00000   29.77394   49.06715   34.23473
    7528      444        4     0.00000   29.34571   49.50064   33.33989
    7529      444        3     0.00000   31.48055   49.07031   35.95685
    7530      444        4     0.00000   32.37223   49.50327   36.39323
    7531      444        3     0.00000   44.65526   49.08740   49.01616
    7532      444        4     0.00000   45.56350   49.50853   49.43098
    7533      444        3     0.00000   44.59374   35.97052   35.96947
    7534      444        4     0.00000   45.48648   36.40532   36.40086
    7535      444        3     0.00000   47.39945   49.14155   42.93445
    7536      444        4     0.00000   46.51013   49.58371   42.50307
    7537      444        3     0.00000   47.27958   35.88009   29.89933
    7538      444        4     0.00000   46.32296   36.24917   29.54471
    7539      444        3     0.00000   34.22606   49.14523   29.76474
    7540      444        4     0.00000   33.31571   49.56978   29.35912
    7541      444        3     0.00000   31.47187   29.74791   42.89002
    7542      444        4     0.00000   32.37670   29.32547   42.47231
    7543      444        3     0.00000   44.66945   29.78524   29.77998
    7544      444        4     0.00000   45.54247   29.33572   29.32783
    7545      444        3     0.00000   47.39130   29.71847   35.97079
    7546      444        4     0.00000   46.49041   29.30339   36.40795
    7547      444        3     0.00000   34.23079   29.77341   49.05506
    7548      444        4     0.00000   33.32938   29.35175   49.48040
    7549      444        3     0.00000   31.47450   35.94713   29.73240
    7550      444        4     0.00000   32.37092   36.37667   29.30339
    7551      444        3     0.00000   44.64185   35.95159   42.88976
    7552      444        4     0.00000   45.54168   36.38351   42.46758
    7553      444        3     0.00000   47.32059   42.94970   29.78077
    7554      444        4     0.00000   46.40550   42.54565   29.36569
    7555      444        3     0.00000   34.21002   42.91026   42.94812
    7556      444        4     0.00000   33.30493   42.48729   42.53409
    7557      444        3     0.00000   34.24420   29.77131   29.80575
    7558      444        4     0.00000   33.31308   29.37936   29.41774
    7559      444        3     0.00000   31.50263   42.94286   49.07741
    7560      444        4     0.00000   32.41824   42.53645   49.48934
    7561      444        3     0.00000   31.49028   29.77998   35.98393
    7562      444        4     0.00000   32.38433   29.35070   36.42294
    7563      444        3     0.00000   44.66603   43.02225   35.91059
    7564      444        4     0.00000   45.54431   42.57772   36.36090
    7565      444        3     0.00000   47.38657   35.94529   49.08818
    7566      444        4     0.00000   46.48332   36.37194   49.51089
    7567      444        3     0.00000   34.25550   35.94187   35.95159
    7568      444        4     0.00000   33.36250   36.37089   36.38929
    7569      444        3     0.00000   35.98130   49.09449   47.35713
    7570      444        4     0.00000   36.39533   49.51379   46.45046
    7571      444        3     0.00000   35.95317   35.93871   34.21975
    7572      444        4     0.00000   36.37325   36.36510   33.31728
    7573      444        3     0.00000   42.86190   49.14260   31.39354
    7574      444        4     0.00000   42.45785   49.54402   32.31440
    7575      444        3     0.00000   42.92472   35.93372   44.60163
    7576      444        4     0.00000   42.49939   36.35196   45.50541
    7577      444        3     0.00000   29.77052   35.93135   31.45873
    7578      444        4     0.00000   29.35281   36.34591   32.36855
    7579      444        3     0.00000   42.91316   29.80154   47.38447
    7580      444        4     0.00000   42.49097   29.36937   46.48542
    7581      444        3     0.00000   42.97073   43.01647   34.18084
    7582      444        4     0.00000   42.54223   42.57562   33.28968
    7583      444        3     0.00000   29.79996   29.78945   34.24919
    7584      444        4     0.00000   29.39566   29.37620   33.33700
    7585      444        3     0.00000   35.99576   29.73766   31.48107
    7586      444        4     0.00000   36.41663   29.32284   32.39011
    7587      444        3     0.00000   35.92688   42.92788   44.65920
    7588      444        4     0.00000   36.35143   42.51595   45.56692
    7589      444        3     0.00000   49.09476   31.50210   42.92078
    7590      444        4     0.00000   49.51720   32.40720   42.50412
    7591      444        3     0.00000   49.06137   44.63869   29.78182
    7592      444        4     0.00000   49.50196   45.53353   29.35754
    7593      444        3     0.00000   36.01363   31.42482   29.73714
    7594      444        4     0.00000   36.44896   32.31335   29.29786
    7595      444        3     0.00000   49.17309   47.41338   35.93845
    7596      444        4     0.00000   49.62945   46.53353   36.37588
    7597      444        3     0.00000   49.11027   34.23762   49.09108
    7598      444        4     0.00000   49.53271   33.33805   49.51904
    7599      444        3     0.00000   35.97184   34.22711   35.93793
    7600      444        4     0.00000   36.40401   33.32964   36.36353
    7601      444        3     0.00000   29.77131   31.49212   35.96973
    7602      444        4     0.00000   29.33809   32.38827   36.39507
    7603      444        3     0.00000   29.77157   44.63738   49.08240
    7604      444        4     0.00000   29.34518   45.54037   49.50038
    7605      444        3     0.00000   29.79339   47.34871   42.92998
    7606      444        4     0.00000   29.37936   46.43731   42.51595
    7607      444        3     0.00000   29.76079   34.23053   29.72899
    7608      444        4     0.00000   29.33335   33.33358   29.29760
    7609      444        3     0.00000   42.81458   47.47700   29.62857
    7610      444        4     0.00000   42.37662   46.58742   29.18824
    7611      444        3     0.00000   42.92630   34.23552   42.87188
    7612      444        4     0.00000   42.50228   33.33963   42.43656
    7613      444        3     0.00000   35.92610   44.61950   42.92183
    7614      444        4     0.00000   36.35222   45.51513   42.48677
    7615      444        3     0.00000   36.00496   47.38946   49.08056
    7616      444        4     0.00000   36.44160   46.49883   49.51326
    7617      444        3     0.00000   42.90290   31.53102   49.08634
    7618      444        4     0.00000   42.46679   32.42902   49.50669
    7619      444        3     0.00000   42.99386   44.77671   35.85039
    7620      444        4     0.00000   42.59402   45.70546   36.23918
    7621      444        3     0.00000   29.76106   42.90054   47.38920
    7622      444        4     0.00000   29.32678   42.45969   46.49961
    7623      444        3     0.00000   29.76631   49.08556   44.62266
    7624      444        4     0.00000   29.33151   49.52141   45.51408
    7625      444        3     0.00000   49.09765   35.94529   47.37027
    7626      444        4     0.00000   49.52167   36.36826   46.46781
    7627      444        3     0.00000   49.09029   49.07136   34.17085
    7628      444        4     0.00000   49.46358   49.45464   33.22869
    7629      444        3     0.00000   49.04902   42.90580   31.47818
    7630      444        4     0.00000   49.46883   42.47283   32.37802
    7631      444        3     0.00000   49.09055   29.77736   44.62345
    7632      444        4     0.00000   49.51720   29.34071   45.51934
    7633      444        3     0.00000   47.37526   29.79523   42.90895
    7634      444        4     0.00000   46.47122   29.37489   42.48519
    7635      444        3     0.00000   44.62870   29.82757   49.09397
    7636      444        4     0.00000   45.52959   29.41301   49.52535
    7637      444        3     0.00000   47.43914   49.10475   35.94634
    7638      444        4     0.00000   46.53510   49.51694   36.37693
    7639      444        3     0.00000   34.27285   49.08845   49.07662
    7640      444        4     0.00000   33.36749   49.50642   49.50117
    7641      444        3     0.00000   31.48502   49.08424   42.91105
    7642      444        4     0.00000   32.38170   49.51457   42.48388
    7643      444        3     0.00000   44.55746   49.16521   29.66484
    7644      444        4     0.00000   45.47544   49.57030   29.25817
    7645      444        3     0.00000   47.35739   42.91132   49.08845
    7646      444        4     0.00000   46.44257   42.49807   49.49512
    7647      444        3     0.00000   34.28021   42.91736   35.93135
    7648      444        4     0.00000   33.39641   42.47651   36.37273
    7649      444        3     0.00000   31.50158   35.91243   49.11395
    7650      444        4     0.00000   32.40352   36.33356   49.54112
    7651      444        3     0.00000   34.21686   35.95659   42.92341
    7652      444        4     0.00000   33.31282   36.37746   42.49991
    7653      444        3     0.00000   31.49895   42.91973   29.76237
    7654      444        4     0.00000   32.39905   42.49097   29.34282
    7655      444        3     0.00000   44.67287   42.91500   42.88661
    7656      444        4     0.00000   45.58953   42.50149   42.48335
    7657      444        3     0.00000   43.00700   29.83177   31.54338
    7658      444        4     0.00000   42.59376   29.41616   32.45662
    7659      444        3     0.00000   42.91894   42.89476   44.56246
    7660      444        4     0.00000   42.47914   42.46311   45.45152
    7661      444        3     0.00000   35.96474   42.94234   34.18847
    7662      444        4     0.00000   36.36431   42.54092   33.26681
    7663      444        3     0.00000   35.96894   49.13971   31.45058
    7664      444        4     0.00000   36.41242   49.56478   32.34227
    7665      444        3     0.00000   42.91657   49.09949   47.32243
    7666      444        4     0.00000   42.48072   49.53008   46.42943
    7667      444        3     0.00000   42.88135   35.95738   34.25576
    7668      444        4     0.00000   42.45312   36.38061   33.35593
    7669      444        3     0.00000   29.78366   34.19793   49.10869
    7670      444        4     0.00000   29.35675   33.29678   49.53245
    7671      444        3     0.00000   29.75238   31.45715   42.87057
    7672      444        4     0.00000   29.32152   32.35094   42.43472
    7673      444        3     0.00000   49.09397   47.40865   42.93182
    7674      444        4     0.00000   49.51799   46.51328   42.49544
    7675      444        3     0.00000   49.06242   34.24341   29.80259
    7676      444        4     0.00000   49.50774   33.37249   29.33993
    7677      444        3     0.00000   49.09370   31.44506   35.91321
    7678      444        4     0.00000   49.50984   32.36225   36.30858
    7679      444        3     0.00000   49.07609   44.62266   49.10317
    7680      444        4     0.00000   49.48907   45.52985   49.52746
    7681      897        5     0.00000   44.11872   38.18791   39.78095
    7682      897        6     0.00000   43.90158   37.80699   40.66870
    7683      897        6     0.00000   43.55668   37.67556   39.14689
    7684      898        5     0.00000   41.14477   51.18806   49.99065
    7685      898        6     0.00000   40.75991   50.27666   49.95095
    7686      898        6     0.00000   41.70444   51.25641   49.17677
    7687      899        5     0.00000   45.20231   41.41659   39.35088
    7688      899        6     0.00000   45.78853   41.19261   38.58512
    7689      899        6     0.00000   45.81771   41.47836   40.12375
    7690      900        5     0.00000   43.34033   38.11193   29.60964
    7691      900        6     0.00000   43.50174   38.00731   28.63830
    7692      900        6     0.00000   42.61006   38.77781   29.67036
    7693      901        5     0.00000   40.04830   38.04595   31.10673
    7694      901        6     0.00000   39.62480   38.36088   30.26920
    7695      901        6     0.00000   39.29726   37.95342   31.74501
    7696      902        5     0.00000   27.36123   41.89976   35.28704
    7697      902        6     0.00000   27.16145   41.35297   34.48710
    7698      902        6     0.00000   28.34808   41.87505   35.36432
    7699      903        5     0.00000   51.97118   51.04611   40.13637
    7700      903        6     0.00000   52.12339   51.83185   40.71943
    7701      903        6     0.00000   52.24457   51.34947   39.23416
    7702      904        5     0.00000   50.33712   39.64557   29.35517
    7703      904        6     0.00000   50.82371   39.24652   28.59125
    7704      904        6     0.00000   50.63523   39.12402   30.14223
    7705      905        5     0.00000   39.05304   42.04566   40.92264
    7706      905        6     0.00000   38.64952   41.34982   41.50044
    7707      905        6     0.00000   38.36377   42.75464   40.87006
    7708      906        5     0.00000   28.86753   38.05594   27.47322
    7709      906        6     0.00000   28.27053   37.36615   27.08916
    7710      906        6     0.00000   28.63488   38.08065   28.43510
    7711      907        5     0.00000   39.41818   41.37926   26.60572
    7712      907        6     0.00000   39.92107   42.07194   26.10835
    7713      907        6     0.00000   40.11665   40.82038   27.03001
    7714      908        5     0.00000   39.31960   28.57784   48.42783
    7715      908        6     0.00000   38.62376   29.07994   48.92152
    7716      908        6     0.00000   39.55645   29.16380   47.66759
    7717      909        5     0.00000   49.72672   27.43642   48.66022
    7718      909        6     0.00000   48.88656   27.58626   49.16232
    7719      909        6     0.00000   49.47199   26.81944   47.92889
    7720      910        5     0.00000   47.55192   45.97780   45.94363
    7721      910        6     0.00000   47.69545   45.07797   45.55614
    7722      910        6     0.00000   47.17495   45.80456   46.84267
    7723      911        5     0.00000   38.15662   51.60919   30.31126
    7724      911        6     0.00000   38.83827   51.40941   29.62121
    7725      911        6     0.00000   38.46446   51.11656   31.11331
    7726      912        5     0.00000   32.49579   39.16739   37.43082
    7727      912        6     0.00000   31.76840   38.74206   36.91242
    7728      912        6     0.00000   32.17350   39.14847   38.36640
    7729      913        5     0.00000   35.09908   49.90653   40.62190
    7730      913        6     0.00000   34.55413   50.45042   41.24387
    7731      913        6     0.00000   36.01837   50.26062   40.72232
    7732      914        5     0.00000   31.67718   33.81807   44.27356
    7733      914        6     0.00000   31.97739   34.54125   44.87923
    7734      914        6     0.00000   31.59779   34.25156   43.38739
    7735      915        5     0.00000   46.86423   33.69084   45.23937
    7736      915        6     0.00000   46.14289   33.41665   44.61845
    7737      915        6     0.00000   46.71649   33.14221   46.05062
    7738      916        5     0.00000   33.25393   33.67979   31.59070
    7739      916        6     0.00000   33.39720   33.30703   30.68665
    7740      916        6     0.00000   33.81754   34.49288   31.61830
    7741      917        5     0.00000   42.36952   38.02755   48.85633
    7742      917        6     0.00000   41.91711   38.82118   49.23829
    7743      917        6     0.00000   42.66500   38.32013   47.95859
    7744      918        5     0.00000   34.29414   27.61150   51.59947
    7745      918        6     0.00000   34.43662   27.14646   50.73696
    7746      918        6     0.00000   33.31019   27.68247   51.68385
    7747      919        5     0.00000   26.37097   29.87383   41.33457
    7748      919        6     0.00000   26.71061   30.67745   40.86664
    7749      919        6     0.00000   27.18432   29.41879   41.66842
    7750      920        5     0.00000   40.76254   29.45270   36.27204
    7751      920        6     0.00000   40.24704   28.62831   36.08566
    7752      920        6     0.00000   41.60454   29.33993   35.76311
    7753      921        5     0.00000   36.00470   41.02963   51.87654
    7754      921        6     0.00000   36.38561   40.96680   50.96567
    7755      921        6     0.00000   36.64849   40.54120   52.44804
    7756      922        5     0.00000   50.96409   36.64139   26.58416
    7757      922        6     0.00000   50.19675   36.80963   25.98165
    7758      922        6     0.00000   50.57713   36.13850   27.34441
    7759      923        5     0.00000   50.78428   42.00780   26.64095
    7760      923        6     0.00000   50.78060   41.12348   26.19616
    7761      923        6     0.00000   51.53086   42.49702   26.21245
    7762      924        5     0.00000   50.32740   34.64640   38.02045
    7763      924        6     0.00000   50.13628   34.32043   38.93291
    7764      924        6     0.00000   49.46068   34.99156   37.69317
    7765      925        5     0.00000   39.74836   49.56110   41.74019
    7766      925        6     0.00000   40.19762   50.23145   41.16580
    7767      925        6     0.00000   38.78149   49.70858   41.58457
    7768      926        5     0.00000   26.78448   42.58245   43.68129
    7769      926        6     0.00000   27.11071   41.82641   44.23044
    7770      926        6     0.00000   25.84416   42.70995   43.96336
    7771      927        5     0.00000   29.99213   52.31555   36.55385
    7772      927        6     0.00000   29.85727   53.27217   36.33960
    7773      927        6     0.00000   30.28261   52.31187   37.49995
    7774      928        5     0.00000   28.92142   26.37255   42.00596
    7775      928        6     0.00000   29.88855   26.32786   42.21416
    7776      928        6     0.00000   28.47321   26.18222   42.86794
    7777      929        5     0.00000   40.74467   52.33658   43.90815
    7778      929        6     0.00000   41.51306   51.71224   43.92340
    7779      929        6     0.00000   40.05698   51.89784   44.46966
    7780      930        5     0.00000   34.86669   27.78578   40.87085
    7781      930        6     0.00000   35.79702   27.99320   41.13636
    7782      930        6     0.00000   34.66322   26.93169   41.32747
    7783      931        5     0.00000   47.63105   37.91530   41.19603
    7784      931        6     0.00000   48.52221   37.71709   41.57931
    7785      931        6     0.00000   47.64997   38.88822   41.01228
    7786      932        5     0.00000   37.12193   38.62376   39.20078
    7787      932        6     0.00000   36.92109   39.47391   39.66713
    7788      932        6     0.00000   37.68213   38.11561   39.83984
    7789      933        5     0.00000   30.59228   41.30039   51.82896
    7790      933        6     0.00000   30.93981   40.75913   51.07660
    7791      933        6     0.00000   31.36068   41.85743   52.11024
    7792      934        5     0.00000   26.50583   28.00003   35.54466
    7793      934        6     0.00000   26.15278   28.22138   34.64614
    7794      934        6     0.00000   27.47138   27.83652   35.39902
    7795      935        5     0.00000   41.57195   42.55932   48.38419
    7796      935        6     0.00000   41.41738   42.86794   49.31163
    7797      935        6     0.00000   42.50254   42.83009   48.18362
    7798      936        5     0.00000   41.22258   34.71159   51.12760
    7799      936        6     0.00000   41.14056   34.69083   50.14128
    7800      936        6     0.00000   41.69524   33.87275   51.35604
    7801      937        5     0.00000   51.92596   49.45937   51.95015
    7802      937        6     0.00000   51.32292   49.74512   51.21908
    7803      937        6     0.00000   51.82291   50.15705   52.64441
    7804      938        5     0.00000   29.48950   50.79979   30.38014
    7805      938        6     0.00000   29.75948   51.39179   29.63461
    7806      938        6     0.00000   28.58099   51.10604   30.62698
    7807      939        5     0.00000   35.55360   37.76020   52.53505
    7808      939        6     0.00000   35.54571   37.68502   51.54821
    7809      939        6     0.00000   36.32094   37.20369   52.82080
    7810      940        5     0.00000   37.83039   38.70946   49.55322
    7811      940        6     0.00000   38.29043   39.24941   50.24406
    7812      940        6     0.00000   38.11062   39.11482   48.69439
    7813      941        5     0.00000   30.84333   42.32299   37.71052
    7814      941        6     0.00000   30.93455   42.26174   36.72683
    7815      941        6     0.00000   31.52051   41.69366   38.06172
    7816      942        5     0.00000   35.89481   49.14707   36.75048
    7817      942        6     0.00000   36.76889   49.53350   37.00968
    7818      942        6     0.00000   35.30702   49.31899   37.52834
    7819      943        5     0.00000   27.07128   48.20254   41.23099
    7820      943        6     0.00000   27.93589   48.25828   40.75203
    7821      943        6     0.00000   27.16040   48.84555   41.97862
    7822      944        5     0.00000   26.50635   41.86427   49.01773
    7823      944        6     0.00000   26.32313   41.01780   49.49775
    7824      944        6     0.00000   26.41224   41.63215   48.05954
    7825      945        5     0.00000   36.14350   48.83083   43.61294
    7826      945        6     0.00000   35.18898   49.06032   43.74201
    7827      945        6     0.00000   36.24917   47.95439   44.05957
    7828      946        5     0.00000   36.97262   43.53933   50.21699
    7829      946        6     0.00000   36.07094   43.94706   50.20857
    7830      946        6     0.00000   37.49864   44.08034   49.57688
    7831      947        5     0.00000   46.62501   46.51381   33.83253
    7832      947        6     0.00000   46.31797   46.46229   34.76733
    7833      947        6     0.00000   46.26224   47.36817   33.50104
    7834      948        5     0.00000   38.02466   49.99249   50.79953
    7835      948        6     0.00000   37.04911   49.94885   50.96120
    7836      948        6     0.00000   38.41819   50.15758   51.69253
    7837      949        5     0.00000   42.85375   39.64820   36.44160
    7838      949        6     0.00000   42.30091   38.99074   36.93397
    7839      949        6     0.00000   42.49124   40.52937   36.71026
    7840      950        5     0.00000   48.58293   39.69420   51.45147
    7841      950        6     0.00000   48.56821   39.71891   50.46173
    7842      950        6     0.00000   47.63893   39.82959   51.71776
    7843      951        5     0.00000   32.17876   26.82023   28.27711
    7844      951        6     0.00000   31.59753   26.58364   27.51160
    7845      951        6     0.00000   31.56257   26.86203   29.05076
    7846      952        5     0.00000   28.03762   28.66485   38.74022
    7847      952        6     0.00000   28.59493   27.84809   38.76782
    7848      952        6     0.00000   28.60965   29.37094   39.13427
    7849      953        5     0.00000   51.58606   39.79068   45.10872
    7850      953        6     0.00000   50.81661   40.39583   45.25751
    7851      953        6     0.00000   51.73432   39.81329   44.12976
    7852      954        5     0.00000   41.23941   39.25756   42.12610
    7853      954        6     0.00000   42.20838   39.15188   42.29986
    7854      954        6     0.00000   41.18131   40.02280   41.50018
    7855      955        5     0.00000   38.97760   38.14322   27.35361
    7856      955        6     0.00000   38.92739   38.20841   26.36703
    7857      955        6     0.00000   39.22312   37.20001   27.52843
    7858      956        5     0.00000   35.42426   30.29128   35.75917
    7859      956        6     0.00000   34.63851   30.01368   35.22447
    7860      956        6     0.00000   36.19450   29.86200   35.30886
    7861      957        5     0.00000   50.31478   39.95051   36.12720
    7862      957        6     0.00000   50.25248   40.32038   37.04333
    7863      957        6     0.00000   51.25194   40.11796   35.85538
    7864      958        5     0.00000   30.17430   29.44324   50.33002
    7865      958        6     0.00000   30.94007   28.95849   49.93308
    7866      958        6     0.00000   29.40012   28.84545   50.18045
    7867      959        5     0.00000   43.53539   29.79129   38.30883
    7868      959        6     0.00000   43.03408   28.98609   38.02597
    7869      959        6     0.00000   42.83640   30.44927   38.55094
    7870      960        5     0.00000   26.45930   36.28440   29.30339
    7871      960        6     0.00000   25.77476   35.83987   29.86069
    7872      960        6     0.00000   26.29842   37.25127   29.44140
    7873      961        5     0.00000   47.55770   27.79867   27.94535
    7874      961        6     0.00000   46.86896   27.49925   27.29972
    7875      961        6     0.00000   48.37605   27.30787   27.68116
    7876      962        5     0.00000   30.16537   37.46026   40.39819
    7877      962        6     0.00000   30.43876   37.48628   39.44710
    7878      962        6     0.00000   31.01289   37.34564   40.89687
    7879      963        5     0.00000   39.15136   38.48759   36.25732
    7880      963        6     0.00000   38.29017   38.97155   36.18424
    7881      963        6     0.00000   39.07328   37.96683   37.09591
    7882      964        5     0.00000   38.56750   28.84939   41.88083
    7883      964        6     0.00000   37.85458   28.87936   42.56747
    7884      964        6     0.00000   38.76256   29.79996   41.68420
    7885      965        5     0.00000   27.25293   31.01525   51.95856
    7886      965        6     0.00000   27.89067   31.69322   52.29636
    7887      965        6     0.00000   27.33968   30.25606   52.58842
    7888      966        5     0.00000   49.89601   43.40106   36.64665
    7889      966        6     0.00000   49.48303   43.10401   35.79702
    7890      966        6     0.00000   50.83344   43.08666   36.59039
    7891      967        5     0.00000   41.18052   41.67158   30.03918
    7892      967        6     0.00000   41.03331   40.74546   30.35595
    7893      967        6     0.00000   40.98205   42.23756   30.82703
    7894      968        5     0.00000   29.25948   38.39006   35.01391
    7895      968        6     0.00000   29.32363   38.84826   35.88903
    7896      968        6     0.00000   29.25975   39.12428   34.34935
    7897      969        5     0.00000   26.79710   36.46842   43.64580
    7898      969        6     0.00000   27.25766   37.15979   44.18497
    7899      969        6     0.00000   25.91251   36.36484   44.07850
    7900      970        5     0.00000   51.37471   51.39600   46.47359
    7901      970        6     0.00000   52.27165   51.62812   46.82269
    7902      970        6     0.00000   51.49300   51.35341   45.49121
    7903      971        5     0.00000   48.43309   43.11636   42.00570
    7904      971        6     0.00000   48.36579   42.95233   41.03147
    7905      971        6     0.00000   48.93387   43.96678   42.08114
    7906      972        5     0.00000   39.04095   32.26708   52.14179
    7907      972        6     0.00000   39.73942   32.65036   52.72643
    7908      972        6     0.00000   39.43290   32.29048   51.23459
    7909      973        5     0.00000   40.09615   46.23437   51.03323
    7910      973        6     0.00000   39.46970   46.56349   50.34133
    7911      973        6     0.00000   39.95997   46.84372   51.80083
    7912      974        5     0.00000   34.75129   52.31870   37.83171
    7913      974        6     0.00000   34.97316   51.88706   38.69447
    7914      974        6     0.00000   34.00261   51.78112   37.46972
    7915      975        5     0.00000   49.26589   48.91994   27.22980
    7916      975        6     0.00000   48.30218   48.70517   27.17275
    7917      975        6     0.00000   49.33319   49.55821   27.98347
    7918      976        5     0.00000   37.33434   27.05419   50.57950
    7919      976        6     0.00000   38.28517   26.89673   50.80294
    7920      976        6     0.00000   37.21578   26.64252   49.68676
    7921      977        5     0.00000   51.51456   50.52219   36.10748
    7922      977        6     0.00000   51.25694   51.47302   36.20554
    7923      977        6     0.00000   51.00957   50.05137   36.81699
    7924      978        5     0.00000   38.62560   45.39421   38.47865
    7925      978        6     0.00000   38.93974   45.30168   37.54412
    7926      978        6     0.00000   38.63454   44.47150   38.83722
    7927      979        5     0.00000   28.75896   49.91336   38.32197
    7928      979        6     0.00000   29.08362   49.01432   38.57960
    7929      979        6     0.00000   27.82995   49.76457   38.01414
    7930      980        5     0.00000   48.55375   26.52975   41.57063
    7931      980        6     0.00000   49.53508   26.44168   41.47573
    7932      980        6     0.00000   48.18809   25.73007   41.11638
    7933      981        5     0.00000   42.17000   35.17426   28.08783
    7934      981        6     0.00000   41.75044   34.34619   27.74583
    7935      981        6     0.00000   42.23519   35.03520   29.06601
    7936      982        5     0.00000   33.22580   39.97364   40.78568
    7937      982        6     0.00000   34.04046   40.39162   41.16212
    7938      982        6     0.00000   32.49447   40.60219   41.01018
    7939      983        5     0.00000   38.84589   35.38246   41.17211
    7940      983        6     0.00000   38.81566   35.34881   42.16080
    7941      983        6     0.00000   37.90741   35.54019   40.89845
    7942      984        5     0.00000   28.43510   39.27596   50.77613
    7943      984        6     0.00000   27.82127   38.75914   50.19622
    7944      984        6     0.00000   27.84861   39.67869   51.46435
    7945      985        5     0.00000   43.96362   38.50967   51.69410
    7946      985        6     0.00000   43.05748   38.74679   52.01166
    7947      985        6     0.00000   44.24227   37.76073   52.27691
    7948      986        5     0.00000   47.89813   48.28930   30.01579
    7949      986        6     0.00000   48.25854   47.50355   30.49738
    7950      986        6     0.00000   48.40838   49.05716   30.37698
    7951      987        5     0.00000   41.99939   51.83895   35.49760
    7952      987        6     0.00000   42.65370   51.23801   35.06017
    7953      987        6     0.00000   41.78094   52.51402   34.80702
    7954      988        5     0.00000   26.25714   29.42063   29.67352
    7955      988        6     0.00000   26.14884   30.26368   30.18088
    7956      988        6     0.00000   25.75110   28.74818   30.19560
    7957      989        5     0.00000   34.45134   37.18555   39.73206
    7958      989        6     0.00000   34.16481   37.36930   38.80304
    7959      989        6     0.00000   35.13141   36.47157   39.64399
    7960      990        5     0.00000   40.75045   43.06931   37.76967
    7961      990        6     0.00000   40.63715   42.10980   37.55463
    7962      990        6     0.00000   41.63294   43.12425   38.21498
    7963      991        5     0.00000   47.71280   38.17082   27.78368
    7964      991        6     0.00000   47.33347   38.65425   28.55996
    7965      991        6     0.00000   46.95545   37.64296   27.42511
    7966      992        5     0.00000   46.29825   34.09777   33.31308
    7967      992        6     0.00000   46.32165   33.95687   34.29257
    7968      992        6     0.00000   46.36371   35.07936   33.20372
    7969      993        5     0.00000   28.66853   40.02464   39.24862
    7970      993        6     0.00000   28.59624   40.84036   38.69158
    7971      993        6     0.00000   28.94902   39.31592   38.61561
    7972      994        5     0.00000   43.69838   49.71068   42.30459
    7973      994        6     0.00000   43.99359   50.57056   41.91211
    7974      994        6     0.00000   42.71021   49.73934   42.25123
    7975      995        5     0.00000   38.06172   40.51570   32.26104
    7976      995        6     0.00000   38.60063   41.34219   32.34095
    7977      995        6     0.00000   37.33224   40.75361   31.63538
    7978      996        5     0.00000   50.39285   28.08757   38.78780
    7979      996        6     0.00000   49.42625   28.27132   38.89899
    7980      996        6     0.00000   50.42887   27.29867   38.19159
    7981      997        5     0.00000   30.65747   52.16255   50.00432
    7982      997        6     0.00000   30.82729   51.71040   49.14155
    7983      997        6     0.00000   31.20400   51.65967   50.65889
    7984      998        5     0.00000   37.08066   51.74195   34.91638
    7985      998        6     0.00000   37.86089   51.72249   35.52599
    7986      998        6     0.00000   36.51021   52.47170   35.26627
    7987      999        5     0.00000   34.17138   44.54143   47.49645
    7988      999        6     0.00000   33.38064   44.70915   46.92443
    7989      999        6     0.00000   34.29703   43.56010   47.46543
    7990     1000        5     0.00000   42.46705   28.39041   40.80276
    7991     1000        6     0.00000   42.23598   27.53368   40.36402
    7992     1000        6     0.00000   41.70444   28.57521   41.40581
    7993     1001        5     0.00000   37.95079   51.98432   46.68573
    7994     1001        6     0.00000   37.86903   52.97038   46.66497
    7995     1001        6     0.00000   37.50810   51.68254   45.85451
    7996     1002        5     0.00000   33.56571   46.30692   32.74973
    7997     1002        6     0.00000   33.12696   45.55378   32.27944
    7998     1002        6     0.00000   34.51049   46.26644   32.45662
    7999     1003        5     0.00000   40.72153   26.38175   27.51370
    8000     1003        6     0.00000   40.28700   26.52607   26.63569
    8001     1003        6     0.00000   41.19025   27.23348   27.70245
    8002     1004        5     0.00000   36.22920   51.20305   27.53815
    8003     1004        6     0.00000   36.04124   50.28691   27.21297
    8004     1004        6     0.00000   37.19922   51.32791   27.38673
    8005     1005        5     0.00000   45.26750   45.37765   31.12461
    8006     1005        6     0.00000   44.56509   46.01960   31.39643
    8007     1005        6     0.00000   45.20257   44.64421   31.78496
    8008     1006        5     0.00000   27.05498   42.64502   40.71759
    8009     1006        6     0.00000   27.33784   43.36715   40.10245
    8010     1006        6     0.00000   27.89751   42.30328   41.10849
    8011     1007        5     0.00000   36.12562   28.19745   27.89672
    8012     1007        6     0.00000   36.74891   27.85045   27.21113
    8013     1007        6     0.00000   36.48208   27.85755   28.75476
    8014     1008        5     0.00000   28.16486   50.80347   51.24958
    8015     1008        6     0.00000   27.70193   51.24379   50.49432
    8016     1008        6     0.00000   27.93431   51.35394   52.04005
    8017     1009        5     0.00000   28.61149   27.93168   31.29180
    8018     1009        6     0.00000   28.41932   27.44720   30.45138
    8019     1009        6     0.00000   28.38778   27.28737   32.00972
    8020     1010        5     0.00000   51.74589   51.84657   31.49974
    8021     1010        6     0.00000   50.97802   51.94463   30.88197
    8022     1010        6     0.00000   51.47039   51.13181   32.12723
    8023     1011        5     0.00000   38.88164   29.74739   27.49714
    8024     1011        6     0.00000   39.81434   29.43956   27.61150
    8025     1011        6     0.00000   38.52492   29.82835   28.41617
    8026     1012        5     0.00000   50.25379   40.48521   40.81433
    8027     1012        6     0.00000   50.64706   39.63874   41.14451
    8028     1012        6     0.00000   50.57371   41.17290   41.45129
    8029     1013        5     0.00000   51.20962   26.81418   26.90829
    8030     1013        6     0.00000   52.05635   26.54894   26.46876
    8031     1013        6     0.00000   51.46961   27.53920   27.53105
    8032     1014        5     0.00000   29.42484   29.84623   28.46322
    8033     1014        6     0.00000   29.87226   28.96953   28.56916
    8034     1014        6     0.00000   29.75107   30.18824   27.59336
    8035     1015        5     0.00000   44.36451   31.31599   34.72080
    8036     1015        6     0.00000   44.19863   30.81415   35.55701
    8037     1015        6     0.00000   45.27486   31.68533   34.83173
    8038     1016        5     0.00000   40.04462   28.22874   30.31494
    8039     1016        6     0.00000   40.30014   29.16432   30.12883
    8040     1016        6     0.00000   39.68658   28.24871   31.23660
    8041     1017        5     0.00000   51.79426   40.85429   31.85384
    8042     1017        6     0.00000   52.23485   41.73914   31.79968
    8043     1017        6     0.00000   51.90152   40.57537   32.79652
    8044     1018        5     0.00000   39.72890   34.12222   37.36615
    8045     1018        6     0.00000   40.51307   34.66060   37.64086
    8046     1018        6     0.00000   39.10115   34.19162   38.12876
    8047     1019        5     0.00000   39.68763   44.80247   27.87359
    8048     1019        6     0.00000   40.10745   44.81850   28.77000
    8049     1019        6     0.00000   38.99153   44.10163   27.93852
    8050     1020        5     0.00000   29.99581   41.46574   43.05327
    8051     1020        6     0.00000   30.87514   41.87189   42.85375
    8052     1020        6     0.00000   29.81626   41.71469   43.99412
    8053     1021        5     0.00000   45.55378   51.41808   52.36287
    8054     1021        6     0.00000   46.49331   51.18228   52.56818
    8055     1021        6     0.00000   45.34058   50.90074   51.54610
    8056     1022        5     0.00000   26.49952   46.95597   28.04130
    8057     1022        6     0.00000   27.28973   47.10318   27.46271
    8058     1022        6     0.00000   26.08548   47.85108   28.12937
    8059     1023        5     0.00000   26.77186   33.76996   40.30803
    8060     1023        6     0.00000   25.94248   33.23080   40.34246
    8061     1023        6     0.00000   26.51450   34.64693   40.68920
    8062     1024        5     0.00000   51.57265   37.33171   38.56041
    8063     1024        6     0.00000   50.95699   37.03807   39.27701
    8064     1024        6     0.00000   51.19253   38.18791   38.24153

