# LAMMPS data file written by OVITO Basic 3.5.4
6528 atoms
6 atom types

           0.000000  52.575800 xlo xhi
           0.000000  52.575800 ylo yhi
           0.000000  52.575800 zlo zhi
           0.000000   0.000000   0.000000 xy xz yz

Masses

    1    15.999400000 # O_2
    2    63.546000000 # Cu4+2
    3    12.010700000 # C_R
    4     1.007940000 # H_
    5    15.999400000 # O_3
    6     1.007940000 # H_
    
Atoms  # charge

       1      444        1     0.00000    8.28516    6.44132   24.94932
       2      444        1     0.00000    8.27964   19.55951   11.82035
       3      444        1     0.00000   21.45382    6.46656   11.83297
       4      444        1     0.00000   21.45040   19.60499   24.98744
       5      444        1     0.00000   17.99223   19.83659   24.97719
       6      444        1     0.00000   17.97987    6.69369   11.82719
       7      444        1     0.00000    4.87772   19.86866   11.81352
       8      444        1     0.00000    4.87194    6.72681   24.95353
       9      444        1     0.00000   17.98382    6.45499    1.29520
      10      444        1     0.00000   18.00537   19.60499   14.45808
      11      444        1     0.00000    4.87299    6.41530   14.46702
      12      444        1     0.00000    4.86615   19.56503    1.32333
      13      444        1     0.00000    8.27937   19.85683    1.32070
      14      444        1     0.00000    8.26045    6.72287   14.46571
      15      444        1     0.00000   21.43752   19.86866   14.44073
      16      444        1     0.00000   21.44146    6.70394    1.31071
      17      444        1     0.00000   24.97324    8.28647    6.43502
      18      444        1     0.00000   24.98533   21.42201   19.54006
      19      444        1     0.00000   11.84349    8.26754   19.53296
      20      444        1     0.00000   11.82798   21.41964    6.42739
      21      444        1     0.00000   24.98165   18.04217   19.87365
      22      444        1     0.00000   24.97377    4.85564    6.71051
      23      444        1     0.00000   11.83192   18.01089    6.71814
      24      444        1     0.00000   11.85085    4.90243   19.86182
      25      444        1     0.00000    1.32254   18.00747    6.43580
      26      444        1     0.00000    1.30230    4.90217   19.56871
      27      444        1     0.00000   14.45098   18.03481   19.55084
      28      444        1     0.00000   14.46124    4.83776    6.41214
      29      444        1     0.00000    1.31387    8.29856   19.86971
      30      444        1     0.00000    1.32544   21.43068    6.70473
      31      444        1     0.00000   14.46702    8.28121    6.68054
      32      444        1     0.00000   14.44993   21.41333   19.87628
      33      444        1     0.00000    6.42949   24.98034    8.26860
      34      444        1     0.00000    6.41688   11.84033   21.41780
      35      444        1     0.00000   19.58895   24.93381   21.41360
      36      444        1     0.00000   19.57555   11.81851    8.29620
      37      444        1     0.00000   19.86892   24.96562   17.99223
      38      444        1     0.00000   19.84815   11.81773    4.86405
      39      444        1     0.00000    6.72813   24.96772    4.86904
      40      444        1     0.00000    6.72550   11.81641   18.02351
      41      444        1     0.00000    6.38796    1.33201   18.04691
      42      444        1     0.00000    6.43239   14.45519    4.87141
      43      444        1     0.00000   19.61156    1.34515    4.83408
      44      444        1     0.00000   19.58948   14.51697   18.02640
      45      444        1     0.00000   19.83790    1.33700    8.30540
      46      444        1     0.00000   19.85499   14.51749   21.41912
      47      444        1     0.00000    6.76151    1.34068   21.38600
      48      444        1     0.00000    6.73154   14.44783    8.27780
      49      444        1     0.00000    6.44027    8.28043    1.30809
      50      444        1     0.00000    6.42713   21.41675   14.44888
      51      444        1     0.00000   19.60236    8.33116   14.46334
      52      444        1     0.00000   19.59106   21.45382    1.32912
      53      444        1     0.00000   19.83711   17.99354    1.33569
      54      444        1     0.00000   19.82712    4.86326   14.48200
      55      444        1     0.00000    6.72418   18.01878   14.45835
      56      444        1     0.00000    6.71682    4.85669    1.29047
      57      444        1     0.00000    6.42371   18.01273   24.96746
      58      444        1     0.00000    6.40636    4.86878   11.83718
      59      444        1     0.00000   19.57897   18.00853   11.82167
      60      444        1     0.00000   19.60420    4.86063   24.94327
      61      444        1     0.00000   19.84132    8.31513   24.95984
      62      444        1     0.00000   19.84316   21.44435   11.80195
      63      444        1     0.00000    6.73259    8.25387   11.82377
      64      444        1     0.00000    6.71682   21.42043   24.97456
      65      444        1     0.00000    8.25650   24.99348   19.89784
      66      444        1     0.00000    8.28673   11.80852    6.71840
      67      444        1     0.00000   21.44593   24.98218    6.68028
      68      444        1     0.00000   21.43331   11.87188   19.87181
      69      444        1     0.00000   17.98382   24.99532    6.44290
      70      444        1     0.00000   18.00458   11.87293   19.57160
      71      444        1     0.00000    4.91373   24.98218   19.53927
      72      444        1     0.00000    4.87693   11.81168    6.42266
      73      444        1     0.00000   18.00195    1.28732   19.85972
      74      444        1     0.00000   18.00511   14.46255    6.71183
      75      444        1     0.00000    4.88455    1.33017    6.71288
      76      444        1     0.00000    4.88745   14.47359   19.85446
      77      444        1     0.00000    8.28227    1.32333    6.40531
      78      444        1     0.00000    8.28095   14.45125   19.54453
      79      444        1     0.00000   21.42254    1.31650   19.58685
      80      444        1     0.00000   21.43621   14.45703    6.44684
      81      444        1     0.00000   24.95274    6.44579   18.02404
      82      444        1     0.00000   24.96956   19.57791    4.85774
      83      444        1     0.00000   11.81930    6.43896    4.83145
      84      444        1     0.00000   11.81168   19.56188   18.02482
      85      444        1     0.00000   24.97061   19.86393    8.28043
      86      444        1     0.00000   24.96457    6.75757   21.42727
      87      444        1     0.00000   11.80958   19.88233   21.40045
      88      444        1     0.00000   11.83140    6.68370    8.27596
      89      444        1     0.00000    1.32964    6.43580    8.27254
      90      444        1     0.00000    1.33253   19.57029   21.39546
      91      444        1     0.00000   14.48884    6.41898   21.38047
      92      444        1     0.00000   14.46676   19.57423    8.28174
      93      444        1     0.00000    1.33122   19.89547   18.01773
      94      444        1     0.00000    1.32281    6.70683    4.84854
      95      444        1     0.00000   14.47017   19.86603    4.86668
      96      444        1     0.00000   14.48463    6.76072   18.00905
      97      444        1     0.00000   18.02877   19.88995    1.32885
      98      444        1     0.00000   18.03481    6.77097   14.46728
      99      444        1     0.00000    4.85984   19.85814   14.45388
     100      444        1     0.00000    4.87588    6.71814    1.30204
     101      444        1     0.00000    8.28043    6.42003    1.29573
     102      444        1     0.00000    8.28989   19.57923   14.45861
     103      444        1     0.00000   21.39704    6.42319   14.47464
     104      444        1     0.00000   21.39835   19.55951    1.33595
     105      444        1     0.00000    8.28043   19.85788   24.96825
     106      444        1     0.00000    8.28989    6.68528   11.82798
     107      444        1     0.00000   21.40492   19.88022   11.80432
     108      444        1     0.00000   21.41071    6.75599   24.96036
     109      444        1     0.00000   18.03560    6.41740   24.94301
     110      444        1     0.00000   18.01378   19.57003   11.81957
     111      444        1     0.00000    4.84828    6.43843   11.82693
     112      444        1     0.00000    4.85958   19.57502   24.96982
     113      444        1     0.00000    1.33201   18.00747   19.83396
     114      444        1     0.00000    1.32596    4.86904    6.71209
     115      444        1     0.00000   14.46939   18.01326    6.71630
     116      444        1     0.00000   14.49120    4.86063   19.81319
     117      444        1     0.00000    1.32491    8.27228    6.40899
     118      444        1     0.00000    1.33621   21.45724   19.58081
     119      444        1     0.00000   14.48016    8.31723   19.57923
     120      444        1     0.00000   14.46623   21.42779    6.43186
     121      444        1     0.00000   24.96089    8.31618   19.85841
     122      444        1     0.00000   24.97324   21.42227    6.71235
     123      444        1     0.00000   11.82929    8.25309    6.72024
     124      444        1     0.00000   11.80826   21.44882   19.84000
     125      444        1     0.00000   24.97009   18.01878    6.42555
     126      444        1     0.00000   24.95326    4.89034   19.59500
     127      444        1     0.00000   11.81352   17.99670   19.58738
     128      444        1     0.00000   11.82535    4.86983    6.38796
     129      444        1     0.00000   19.85946    1.31702   18.02325
     130      444        1     0.00000   19.87365   14.45677    4.88324
     131      444        1     0.00000    6.71656    1.31808    4.84407
     132      444        1     0.00000    6.71524   14.45256   17.98382
     133      444        1     0.00000    6.44921    1.33411    8.27464
     134      444        1     0.00000    6.45105   14.47727   21.41649
     135      444        1     0.00000   19.56398    1.28732   21.42464
     136      444        1     0.00000   19.56556   14.46045    8.27806
     137      444        1     0.00000   19.88338   24.98612    8.24573
     138      444        1     0.00000   19.87286   11.87792   21.43936
     139      444        1     0.00000    6.69737   24.99033   21.45540
     140      444        1     0.00000    6.72366   11.80563    8.28095
     141      444        1     0.00000    6.47602   24.98192   17.97935
     142      444        1     0.00000    6.44027   11.81510    4.85984
     143      444        1     0.00000   19.54584   24.99638    4.87903
     144      444        1     0.00000   19.56687   11.87950   18.00458
     145      444        1     0.00000   19.89232   18.03613   24.98533
     146      444        1     0.00000   19.89074    4.90217   11.84138
     147      444        1     0.00000    6.71340   17.99985   11.81878
     148      444        1     0.00000    6.72392    4.87535   24.94143
     149      444        1     0.00000    6.43370    8.29173   24.96036
     150      444        1     0.00000    6.44579   21.42674   11.81089
     151      444        1     0.00000   19.54374    8.25966   11.82193
     152      444        1     0.00000   19.55084   21.40519   24.97955
     153      444        1     0.00000   19.87733    8.26570    1.31150
     154      444        1     0.00000   19.87681   21.43463   14.44257
     155      444        1     0.00000    6.70026    8.28989   14.46334
     156      444        1     0.00000    6.71551   21.41833    1.32570
     157      444        1     0.00000    6.43055   18.00301    1.31992
     158      444        1     0.00000    6.43291    4.84907   14.47622
     159      444        1     0.00000   19.56766   18.04112   14.45913
     160      444        1     0.00000   19.55031    4.89507    1.29284
     161      444        1     0.00000   18.04480    1.34436    6.39506
     162      444        1     0.00000   18.02167   14.51250   19.58396
     163      444        1     0.00000    4.83513    1.33280   19.61051
     164      444        1     0.00000    4.86983   14.45256    6.43475
     165      444        1     0.00000    8.31618    1.34279   19.81871
     166      444        1     0.00000    8.29357   14.45046    6.71393
     167      444        1     0.00000   21.40440    1.33306    6.74600
     168      444        1     0.00000   21.42201   14.50987   19.85919
     169      444        1     0.00000    8.29357   24.97035    6.43002
     170      444        1     0.00000    8.28831   11.81431   19.58580
     171      444        1     0.00000   21.43174   24.96273   19.55636
     172      444        1     0.00000   21.41018   11.81483    6.42844
     173      444        1     0.00000   18.02745   24.93539   19.84868
     174      444        1     0.00000   18.01562   11.82430    6.72970
     175      444        1     0.00000    4.86536   24.97876    6.70552
     176      444        1     0.00000    4.85459   11.83797   19.85367
     177      444        1     0.00000    1.32333   19.87208    8.27333
     178      444        1     0.00000    1.31255    6.73496   21.43331
     179      444        1     0.00000   14.44809   19.84552   21.43568
     180      444        1     0.00000   14.46702    6.71340    8.23863
     181      444        1     0.00000    1.30809    6.46157   18.00143
     182      444        1     0.00000    1.32307   19.56556    4.86799
     183      444        1     0.00000   14.45650    6.40505    4.85353
     184      444        1     0.00000   14.45151   19.60052   17.99012
     185      444        1     0.00000   24.97929   19.85473   17.98382
     186      444        1     0.00000   24.97061    6.72129    4.87325
     187      444        1     0.00000   11.83192   19.85788    4.86274
     188      444        1     0.00000   11.84428    6.70999   17.96541
     189      444        1     0.00000   24.98034    6.42135    8.27070
     190      444        1     0.00000   24.98428   19.60998   21.43095
     191      444        1     0.00000   11.85111    6.46367   21.42806
     192      444        1     0.00000   11.82824   19.57266    8.28332
     193      444        2     0.00000    7.33170    7.32959   -0.01551
     194      444        2     0.00000    7.33143   20.46644   13.13475
     195      444        2     0.00000   20.47302    7.34431   13.14842
     196      444        2     0.00000   20.46697   20.47486    0.01367
     197      444        2     0.00000   18.96278   18.96409    0.01236
     198      444        2     0.00000   18.96488    5.83907   13.15447
     199      444        2     0.00000    5.81935   18.96146   13.13633
     200      444        2     0.00000    5.82303    5.82040   -0.02182
     201      444        2     0.00000   18.96041    7.33774   -0.01682
     202      444        2     0.00000   18.95752   20.49010   13.13107
     203      444        2     0.00000    5.81515    7.32276   13.14526
     204      444        2     0.00000    5.81672   20.46828    0.00447
     205      444        2     0.00000    7.32565   18.96041    0.00000
     206      444        2     0.00000    7.31934    5.81015   13.15131
     207      444        2     0.00000   20.46592   18.98118   13.13159
     208      444        2     0.00000   20.47197    5.83302   -0.01682
     209      444        2     0.00000    0.00815    7.32617    7.31960
     210      444        2     0.00000    0.01551   20.48301   20.45540
     211      444        2     0.00000   13.16577    7.33459   20.44778
     212      444        2     0.00000   13.14737   20.47197    7.32933
     213      444        2     0.00000    0.01183   18.97250   18.95016
     214      444        2     0.00000    0.00447    5.81515    5.81304
     215      444        2     0.00000   13.15078   18.96514    5.81935
     216      444        2     0.00000   13.16761    5.83197   18.93596
     217      444        2     0.00000    0.00237   18.96830    7.32591
     218      444        2     0.00000   -0.01025    5.85432   20.47249
     219      444        2     0.00000   13.13107   18.97066   20.46276
     220      444        2     0.00000   13.14632    5.80463    7.30041
     221      444        2     0.00000   -0.01025    7.35930   18.96067
     222      444        2     0.00000    0.00342   20.47223    5.81304
     223      444        2     0.00000   13.14316    7.31803    5.79753
     224      444        2     0.00000   13.13081   20.48143   18.95673
     225      444        2     0.00000    7.33800    0.00815    7.31908
     226      444        2     0.00000    7.33432   13.14579   20.46644
     227      444        2     0.00000   20.47696   -0.01814   20.47039
     228      444        2     0.00000   20.47328   13.13790    7.33879
     229      444        2     0.00000   18.96935   -0.01709   18.96094
     230      444        2     0.00000   18.96646   13.14027    5.82855
     231      444        2     0.00000    5.82829    0.00473    5.81225
     232      444        2     0.00000    5.82461   13.14526   18.95778
     233      444        2     0.00000    7.33248    0.01840   18.96225
     234      444        2     0.00000    7.33459   13.13238    5.81909
     235      444        2     0.00000   20.47407    0.02024    5.81252
     236      444        2     0.00000   20.49562   13.17996   18.94884
     237      444        2     0.00000   18.96593    0.02156    7.31803
     238      444        2     0.00000   18.94622   13.17918   20.49457
     239      444        2     0.00000    5.82592    0.01735   20.47407
     240      444        2     0.00000    5.82645   13.12949    7.32775
     241      444        3     0.00000    8.51281    4.66374   23.35154
     242      444        3     0.00000    7.81776    5.34801   24.47325
     243      444        3     0.00000    8.50072   17.77982   10.22704
     244      444        3     0.00000    7.80882   18.46725   11.34822
     245      444        3     0.00000   17.78455   21.61707   23.37441
     246      444        3     0.00000   18.46226   20.93043   24.50374
     247      444        3     0.00000   17.77062    8.48048   10.22336
     248      444        3     0.00000   18.45095    7.78648   11.35033
     249      444        3     0.00000    4.64612    8.51859   23.37283
     250      444        3     0.00000    5.33960    7.82407   24.48849
     251      444        3     0.00000   17.77824    4.66242    2.88667
     252      444        3     0.00000   18.45621    5.36115    1.76497
     253      444        3     0.00000   17.80190   17.83240   16.06690
     254      444        3     0.00000   18.47908   18.51483   14.93494
     255      444        3     0.00000    4.64218    4.64770   16.07321
     256      444        3     0.00000    5.33986    5.32383   14.94599
     257      444        3     0.00000    8.50019   21.63678    2.91796
     258      444        3     0.00000    7.80987   20.94883    1.79546
     259      444        3     0.00000    8.48994    8.50308   16.05297
     260      444        3     0.00000    7.79357    7.81855   14.93416
     261      444        3     0.00000   23.36889    8.49336    4.65795
     262      444        3     0.00000   24.49717    7.81303    5.34486
     263      444        3     0.00000   10.24019    8.49546   17.76589
     264      444        3     0.00000   11.37004    7.80120   18.44017
     265      444        3     0.00000   23.38624   17.82872   21.64940
     266      444        3     0.00000   24.51058   18.51588   20.96486
     267      444        3     0.00000   23.38624    4.64323    8.50545
     268      444        3     0.00000   24.50663    5.32698    7.80567
     269      444        3     0.00000   10.23467   17.78639    8.49783
     270      444        3     0.00000   11.35769   18.47908    7.81145
     271      444        3     0.00000    2.91927   17.78482    4.65348
     272      444        3     0.00000    1.79573   18.47408    5.34144
     273      444        3     0.00000   16.06217   17.82740   17.78876
     274      444        3     0.00000   14.92732   18.50931   18.46252
     275      444        3     0.00000   16.05192    4.63245    4.62089
     276      444        3     0.00000   14.92969    5.31094    5.31831
     277      444        3     0.00000    2.90981    8.51623   21.64703
     278      444        3     0.00000    1.78600    7.82749   20.96171
     279      444        3     0.00000   16.05796    8.49047    8.47312
     280      444        3     0.00000   14.93889    7.80751    7.77333
     281      444        3     0.00000    4.65112   23.38440    8.48941
     282      444        3     0.00000    5.33618   24.50795    7.79936
     283      444        3     0.00000    4.63114   10.25728   21.64809
     284      444        3     0.00000    5.32146   11.37215   20.95146
     285      444        3     0.00000   21.65992   23.38046   17.76536
     286      444        3     0.00000   20.96513   24.49638   18.45936
     287      444        3     0.00000   21.63074   10.21784    4.65059
     288      444        3     0.00000   20.93989   11.34270    5.33513
     289      444        3     0.00000    8.50361   23.36758    4.65164
     290      444        3     0.00000    7.82039   24.49454    5.33934
     291      444        3     0.00000    4.61694    2.92532   17.81610
     292      444        3     0.00000    5.29727    1.80388   18.51615
     293      444        3     0.00000    4.65033   16.05165    4.65322
     294      444        3     0.00000    5.33907   14.92706    5.34170
     295      444        3     0.00000   21.63915    2.92453    8.52385
     296      444        3     0.00000   20.93595    1.80519    7.83905
     297      444        3     0.00000   21.64257   16.10791   21.63757
     298      444        3     0.00000   20.94935   14.98647   20.94856
     299      444        3     0.00000    8.50755   16.04929    8.49493
     300      444        3     0.00000    7.82328   14.92259    7.80698
     301      444        3     0.00000    4.65900    8.49231    2.90376
     302      444        3     0.00000    5.34696    7.80856    1.77864
     303      444        3     0.00000    4.65480   21.64730   16.04745
     304      444        3     0.00000    5.33381   20.95119   14.92338
     305      444        3     0.00000   21.62600   17.78508    2.93031
     306      444        3     0.00000   20.93016   18.46646    1.80782
     307      444        3     0.00000   21.61128    4.66032   16.08662
     308      444        3     0.00000   20.92149    5.33513   14.95466
     309      444        3     0.00000    8.49835    4.63745    2.88378
     310      444        3     0.00000    7.80987    5.32540    1.76339
     311      444        3     0.00000    4.64954   17.79901   23.36311
     312      444        3     0.00000    5.33145   18.48407   24.49349
     313      444        3     0.00000    4.64218    4.65506   10.22836
     314      444        3     0.00000    5.31831    5.34302   11.35769
     315      444        3     0.00000   21.63389    8.53700   23.37178
     316      444        3     0.00000   20.93936    7.84878   24.49060
     317      444        3     0.00000   21.62732   21.65255   10.20260
     318      444        3     0.00000   20.93516   20.97144   11.32877
     319      444        3     0.00000    8.50992    8.46970   10.22915
     320      444        3     0.00000    7.82354    7.77990   11.35296
     321      444        3     0.00000    8.48442   23.39229   21.66202
     322      444        3     0.00000    7.78937   24.51846   20.98773
     323      444        3     0.00000    8.50571   10.20391    8.49678
     324      444        3     0.00000    7.81671   11.33219    7.81014
     325      444        3     0.00000   17.77272   23.40254    4.65138
     326      444        3     0.00000   18.45305   24.52503    5.34722
     327      444        3     0.00000   17.79191   10.28619   17.78587
     328      444        3     0.00000   18.47461   11.40711   18.47566
     329      444        3     0.00000    4.65690   10.22100    4.63719
     330      444        3     0.00000    5.34643   11.34218    5.32829
     331      444        3     0.00000   17.79454    2.89193   21.63152
     332      444        3     0.00000   18.47303    1.76050   20.95172
     333      444        3     0.00000   17.79191   16.06164    8.49283
     334      444        3     0.00000   18.47540   14.93573    7.80488
     335      444        3     0.00000    4.66374    2.93136    8.48810
     336      444        3     0.00000    5.35616    1.80624    7.80356
     337      444        3     0.00000    8.49888    2.91296    4.61984
     338      444        3     0.00000    7.81066    1.79178    5.31121
     339      444        3     0.00000    8.50256   16.04535   17.76747
     340      444        3     0.00000    7.81119   14.92180   18.45121
     341      444        3     0.00000   23.34655    4.67136   17.81978
     342      444        3     0.00000   24.47745    5.35747   18.50116
     343      444        3     0.00000   10.22836    4.64849    4.61379
     344      444        3     0.00000   11.35006    5.34223    5.29859
     345      444        3     0.00000   23.36968   21.64283    8.48258
     346      444        3     0.00000   24.49796   20.95409    7.80461
     347      444        3     0.00000   10.21627   21.65992   21.63415
     348      444        3     0.00000   11.33718   20.97643   20.93411
     349      444        3     0.00000   10.24045    8.47259    8.50124
     350      444        3     0.00000   11.36032    7.78043    7.81224
     351      444        3     0.00000    2.92295    4.65401    8.48915
     352      444        3     0.00000    1.80020    5.34144    7.80277
     353      444        3     0.00000   16.08530    4.64271   21.60497
     354      444        3     0.00000   14.96307    5.32856   20.90887
     355      444        3     0.00000    2.93452   21.66675   17.79112
     356      444        3     0.00000    1.80729   20.98721   18.48670
     357      444        3     0.00000    2.92374    8.48863    4.63167
     358      444        3     0.00000    1.79730    7.80041    5.31699
     359      444        3     0.00000   16.05770   21.65650    4.64770
     360      444        3     0.00000   14.93889   20.96066    5.33723
     361      444        3     0.00000   17.79507   21.67122    2.91822
     362      444        3     0.00000   18.49485   20.98432    1.79914
     363      444        3     0.00000   17.81557    8.54567   16.06532
     364      444        3     0.00000   18.50878    7.86324   14.93889
     365      444        3     0.00000    8.50177   17.79349   16.05455
     366      444        3     0.00000    7.81723   18.48697   14.93179
     367      444        3     0.00000    8.49415   21.64651   23.37757
     368      444        3     0.00000    7.80935   20.95224   24.49953
     369      444        3     0.00000   17.81978    4.64376   23.34076
     370      444        3     0.00000   18.51036    5.32856   24.46773
     371      444        3     0.00000   17.79349   17.78771   10.22915
     372      444        3     0.00000   18.48407   18.47592   11.35033
     373      444        3     0.00000    2.92663   17.79297   21.62259
     374      444        3     0.00000    1.80388   18.47671   20.92753
     375      444        3     0.00000   16.06138   17.79218    8.49914
     376      444        3     0.00000   14.93968   18.48197    7.81092
     377      444        3     0.00000   16.07742    8.54146   17.79375
     378      444        3     0.00000   14.95440    7.85272   18.48381
     379      444        3     0.00000   23.36758    8.53594   21.64546
     380      444        3     0.00000   24.49112    7.84930   20.95540
     381      444        3     0.00000   23.36679   17.79796    4.65401
     382      444        3     0.00000   24.49454   18.48775    5.33381
     383      444        3     0.00000   10.22626   17.78087   17.79297
     384      444        3     0.00000   11.34270   18.46699   18.49249
     385      444        3     0.00000   21.62022    2.93426   17.82214
     386      444        3     0.00000   20.94620    1.79678   18.50011
     387      444        3     0.00000   21.64546   16.05560    4.66321
     388      444        3     0.00000   20.96513   14.92969    5.35379
     389      444        3     0.00000    4.66637   16.07321   21.62811
     390      444        3     0.00000    5.35826   14.94940   20.94488
     391      444        3     0.00000   21.64572   23.37888    8.46444
     392      444        3     0.00000   20.97196   24.50847    7.77307
     393      444        3     0.00000   21.64125   10.26753   21.64546
     394      444        3     0.00000   20.95934   11.40054   20.96434
     395      444        3     0.00000    4.68582   23.38151   17.77377
     396      444        3     0.00000    5.38350   24.50716   18.44990
     397      444        3     0.00000   21.66281   17.82582   23.38466
     398      444        3     0.00000   20.98248   18.51036   24.51347
     399      444        3     0.00000   21.66517    4.66584   10.24729
     400      444        3     0.00000   20.98458    5.36957   11.36715
     401      444        3     0.00000    4.66032   21.64782   10.21653
     402      444        3     0.00000    5.35090   20.95961   11.33929
     403      444        3     0.00000   21.64730    8.48626    2.91664
     404      444        3     0.00000   20.96854    7.79568    1.78653
     405      444        3     0.00000   21.66176   21.65361   16.03062
     406      444        3     0.00000   20.97065   20.96381   14.91155
     407      444        3     0.00000    4.65059   17.78376    2.92032
     408      444        3     0.00000    5.33750   18.47198    1.79467
     409      444        3     0.00000   17.81189    2.93031    4.61616
     410      444        3     0.00000   18.51509    1.81492    5.30174
     411      444        3     0.00000   17.81531   16.11580   17.81268
     412      444        3     0.00000   18.49669   14.98857   18.49774
     413      444        3     0.00000    8.52990    2.93951   21.61076
     414      444        3     0.00000    7.85009    1.81544   20.91386
     415      444        3     0.00000    8.49678   10.21679   17.80138
     416      444        3     0.00000    7.81539   11.34034   18.49459
     417      444        3     0.00000   17.80926   23.33209   21.62443
     418      444        3     0.00000   18.49880   24.45826   20.93963
     419      444        3     0.00000   17.78771   10.22284    8.50072
     420      444        3     0.00000   18.48223   11.34849    7.82223
     421      444        3     0.00000    2.92137   21.65124    8.48889
     422      444        3     0.00000    1.79678   20.96329    7.80041
     423      444        3     0.00000   16.05928   21.61707   21.64073
     424      444        3     0.00000   14.92522   20.93674   20.96434
     425      444        3     0.00000    2.89877    4.66978   17.79507
     426      444        3     0.00000    1.77680    5.36799   18.47487
     427      444        3     0.00000   23.38703   21.64335   17.76589
     428      444        3     0.00000   24.50926   20.94988   18.45069
     429      444        3     0.00000   10.23467   21.63678    4.64639
     430      444        3     0.00000   11.35769   20.94935    5.33355
     431      444        3     0.00000   10.25438    4.67662   21.63336
     432      444        3     0.00000   11.37898    5.37114   20.95540
     433      444        3     0.00000    9.66895    5.22866   22.78583
     434      444        4     0.00000   10.08693    6.13060   23.21484
     435      444        3     0.00000    9.65712   18.34133    9.65423
     436      444        4     0.00000   10.07904   19.24379   10.08010
     437      444        3     0.00000   16.62552   21.06528   22.80265
     438      444        4     0.00000   16.19019   20.17360   23.23640
     439      444        3     0.00000   16.62158    7.92554    9.63294
     440      444        4     0.00000   16.19308    7.02334   10.05144
     441      444        3     0.00000    3.50286   21.08920    9.64161
     442      444        4     0.00000    3.08042   20.18622   10.06485
     443      444        3     0.00000   16.61448    5.20027    3.46264
     444      444        4     0.00000   16.17626    6.09564    3.03862
     445      444        3     0.00000   16.63419   18.37971   16.62867
     446      444        4     0.00000   16.19335   19.26535   16.18677
     447      444        3     0.00000    3.49576   18.34343    3.49734
     448      444        4     0.00000    3.07174   19.24563    3.07384
     449      444        3     0.00000    9.65949   21.08027    3.48919
     450      444        4     0.00000   10.08851   20.18411    3.05965
     451      444        3     0.00000    9.66080    7.95130   16.60607
     452      444        4     0.00000   10.09508    7.06645   16.16075
     453      444        3     0.00000   22.78425    9.64424    5.21657
     454      444        4     0.00000   23.20223   10.06774    6.12166
     455      444        3     0.00000   22.81238   22.79950   18.32714
     456      444        4     0.00000   23.23272   23.21931   19.23302
     457      444        3     0.00000    9.65949    9.64056   18.34527
     458      444        4     0.00000   10.08746   10.05722   19.24826
     459      444        3     0.00000   22.80081   16.68099   21.08184
     460      444        4     0.00000   23.22326   16.25591   20.17964
     461      444        3     0.00000   22.79818    3.48893    7.95603
     462      444        4     0.00000   23.21642    3.05833    7.05436
     463      444        3     0.00000    9.68473    3.52258   21.06265
     464      444        4     0.00000   10.11322    3.10486   20.15940
     465      444        3     0.00000    3.49419   16.62789    5.21158
     466      444        4     0.00000    3.06859   16.20281    6.11220
     467      444        3     0.00000    3.46133    3.51075   18.36315
     468      444        4     0.00000    3.02679    3.09119   19.26193
     469      444        3     0.00000    3.47631    9.67815   21.09157
     470      444        4     0.00000    3.04782   10.10375   20.19305
     471      444        3     0.00000    3.49366   22.80949    7.93316
     472      444        4     0.00000    3.06464   23.23771    7.03543
     473      444        3     0.00000    5.21552   22.80554    9.64161
     474      444        4     0.00000    6.11772   23.22983   10.06485
     475      444        3     0.00000   18.35631   22.76374   22.78951
     476      444        4     0.00000   19.25746   23.18803   23.21511
     477      444        3     0.00000   18.33292    9.64266    9.66054
     478      444        4     0.00000   19.22671   10.06984   10.09823
     479      444        3     0.00000   21.10629   22.81185   16.60423
     480      444        4     0.00000   20.20725   23.24087   16.17705
     481      444        3     0.00000   21.08211    9.64214    3.48946
     482      444        4     0.00000   20.18464   10.06853    3.05781
     483      444        3     0.00000    7.94157   22.79135    3.49708
     484      444        4     0.00000    7.03911   23.21511    3.07463
     485      444        3     0.00000    5.18687    3.49077   16.65943
     486      444        4     0.00000    6.08617    3.05728   16.24040
     487      444        3     0.00000   18.36105    3.51942    3.46501
     488      444        4     0.00000   19.27560    3.11722    3.04966
     489      444        3     0.00000   21.09315    3.51127    9.67947
     490      444        4     0.00000   20.18963    3.09487   10.10875
     491      444        3     0.00000    7.96234    3.50786   22.76769
     492      444        4     0.00000    7.06119    3.07831   23.18698
     493      444        3     0.00000    5.21683    9.64740    3.48131
     494      444        4     0.00000    6.11851   10.07300    3.05807
     495      444        3     0.00000   18.36000    9.70891   16.63525
     496      444        4     0.00000   19.25746   10.13977   16.20886
     497      444        3     0.00000   21.07738   16.62736    3.50943
     498      444        4     0.00000   20.17728   16.19808    3.08778
     499      444        3     0.00000    7.94499   16.63025   16.61632
     500      444        4     0.00000    7.04595   16.20596   16.18520
     501      444        3     0.00000    7.93947    3.48420    3.46317
     502      444        4     0.00000    7.03622    3.05912    3.04204
     503      444        3     0.00000    5.21736   16.64892   22.78635
     504      444        4     0.00000    6.11930   16.22647   23.21274
     505      444        3     0.00000    5.21394    3.50707    9.64766
     506      444        4     0.00000    6.11746    3.08778   10.07326
     507      444        3     0.00000   18.35369   16.63577    9.64819
     508      444        4     0.00000   19.25773   16.21306   10.06879
     509      444        3     0.00000   21.07212    9.68657   22.79187
     510      444        4     0.00000   20.16045   10.10191   23.20486
     511      444        3     0.00000    7.94604    9.62295    9.65003
     512      444        4     0.00000    7.03964   10.04224   10.06905
     513      444        3     0.00000    9.63688   22.82000   21.08973
     514      444        4     0.00000   10.05565   23.24902   20.18779
     515      444        3     0.00000    9.66343    9.62873    7.94000
     516      444        4     0.00000   10.08824   10.05354    7.03832
     517      444        3     0.00000   16.62210   22.81685    5.20711
     518      444        4     0.00000   16.19387   23.23771    6.10826
     519      444        3     0.00000   16.63840    9.70602   18.34396
     520      444        4     0.00000   16.20281   10.13609   19.23775
     521      444        3     0.00000    3.49918    9.64450    5.19265
     522      444        4     0.00000    3.07253   10.06958    6.09275
     523      444        3     0.00000   16.64550    3.47263   21.06476
     524      444        4     0.00000   16.21464    3.04072   20.17044
     525      444        3     0.00000   16.63735   16.63919    7.93605
     526      444        4     0.00000   16.21254   16.21727    7.03333
     527      444        3     0.00000    3.50812    3.50470    7.92580
     528      444        4     0.00000    3.09041    3.08304    7.01992
     529      444        3     0.00000    9.65344    3.49366    5.17793
     530      444        4     0.00000   10.07641    3.07516    6.08302
     531      444        3     0.00000    9.65633   16.61632   18.33423
     532      444        4     0.00000   10.08325   16.18125   19.22986
     533      444        3     0.00000   22.76690    5.22603   16.66206
     534      444        4     0.00000   23.18961    6.12718   16.23488
     535      444        3     0.00000   22.78162   18.35237    3.50076
     536      444        4     0.00000   23.19960   19.25589    3.07463
     537      444        3     0.00000    9.65318    5.20001    3.45660
     538      444        4     0.00000   10.07615    6.10090    3.02968
     539      444        3     0.00000   22.78609   21.08920    9.63636
     540      444        4     0.00000   23.20775   20.18963   10.06748
     541      444        3     0.00000   22.79713    7.98495   22.80580
     542      444        4     0.00000   23.23219    7.09221   23.24245
     543      444        3     0.00000    9.66764    7.91502    9.65739
     544      444        4     0.00000   10.09561    7.01624   10.08430
     545      444        3     0.00000    3.48709    5.20921    9.65055
     546      444        4     0.00000    3.05360    6.10484   10.07904
     547      444        3     0.00000    3.49445   18.35369   22.78215
     548      444        4     0.00000    3.06385   19.25300   23.20722
     549      444        3     0.00000    3.49576   21.10261   16.62999
     550      444        4     0.00000    3.05755   20.20725   16.20570
     551      444        3     0.00000    3.50365    7.93027    3.47789
     552      444        4     0.00000    3.08173    7.02781    3.05308
     553      444        3     0.00000   16.64077   21.10261    3.49208
     554      444        4     0.00000   16.22358   20.19831    3.06675
     555      444        3     0.00000   16.66548    7.97680   16.64576
     556      444        4     0.00000   16.25223    7.06592   16.22831
     557      444        3     0.00000    9.65108   18.35158   16.64182
     558      444        4     0.00000   10.07063   19.26220   16.23146
     559      444        3     0.00000    9.64661   21.09183   22.79029
     560      444        4     0.00000   10.07300   20.18727   23.20617
     561      444        3     0.00000   16.67231    5.21236   22.75244
     562      444        4     0.00000   16.26275    6.12797   23.16095
     563      444        3     0.00000   16.63551   18.34633    9.65765
     564      444        4     0.00000   16.20833   19.24485   10.08693
     565      444        3     0.00000    3.50943   16.64182   21.06555
     566      444        4     0.00000    3.08751   16.21490   20.16308
     567      444        3     0.00000    3.52941   22.81474   18.34580
     568      444        4     0.00000    3.11880   23.24008   19.25273
     569      444        3     0.00000   22.78819    9.68446   21.08079
     570      444        4     0.00000   23.20275   10.09955   20.16729
     571      444        3     0.00000   22.80028   22.79660    7.91450
     572      444        4     0.00000   23.23062   23.21774    7.01440
     573      444        3     0.00000   22.80081   16.63787    5.21552
     574      444        4     0.00000   23.23482   16.21254    6.11115
     575      444        3     0.00000   22.77032    3.51864   18.38392
     576      444        4     0.00000   23.19303    3.10013   19.28927
     577      444        3     0.00000   21.05713    3.50628   16.66705
     578      444        4     0.00000   20.15809    3.07752   16.24224
     579      444        3     0.00000   18.36394    3.47631   22.77794
     580      444        4     0.00000   19.26298    3.04861   23.20512
     581      444        3     0.00000   21.07527   22.80686    9.61822
     582      444        4     0.00000   20.17255   23.23482   10.03725
     583      444        3     0.00000    7.93237   22.80738   22.81501
     584      444        4     0.00000    7.03333   23.22878   23.24718
     585      444        3     0.00000    5.22998   22.79792   16.61763
     586      444        4     0.00000    6.13323   23.21379   16.18704
     587      444        3     0.00000   18.34002   22.83262    3.49471
     588      444        4     0.00000   19.23880   23.26374    3.07122
     589      444        3     0.00000   21.09183   16.67862   22.80028
     590      444        4     0.00000   20.19147   16.25249   23.22720
     591      444        3     0.00000    7.94525   16.62368    9.64976
     592      444        4     0.00000    7.04358   16.19808   10.07247
     593      444        3     0.00000    5.19265    9.68473   22.80528
     594      444        4     0.00000    6.08749   10.11690   23.23535
     595      444        3     0.00000    7.92712    9.64582   16.64813
     596      444        4     0.00000    7.01571   10.06432   16.23935
     597      444        3     0.00000    5.20947   16.62815    3.49682
     598      444        4     0.00000    6.11115   16.20386    3.07200
     599      444        3     0.00000   18.37629   16.69229   16.65969
     600      444        4     0.00000   19.28428   16.27720   16.24382
     601      444        3     0.00000   16.64471    3.48394    5.17504
     602      444        4     0.00000   16.22463    3.05045    6.07461
     603      444        3     0.00000   16.65181   16.68440   18.36341
     604      444        4     0.00000   16.22726   16.26248   19.26535
     605      444        3     0.00000    9.66133   16.63025    7.93632
     606      444        4     0.00000   10.08693   16.20859    7.03385
     607      444        3     0.00000    9.65896   22.79056    5.20842
     608      444        4     0.00000   10.08299   23.21300    6.11115
     609      444        3     0.00000   16.65417   22.75533   21.06397
     610      444        4     0.00000   16.24014   23.17042   20.15309
     611      444        3     0.00000   16.63919    9.64792    7.92554
     612      444        4     0.00000   16.22331   10.07563    7.02124
     613      444        3     0.00000    3.49787    7.95104   22.79187
     614      444        4     0.00000    3.09041    7.03596   23.20223
     615      444        3     0.00000    3.48788    5.22025   16.64129
     616      444        4     0.00000    3.07411    6.12482   16.21227
     617      444        3     0.00000   22.81106   21.08815   16.61027
     618      444        4     0.00000   23.22983   20.18227   16.18967
     619      444        3     0.00000   22.79976    7.93106    3.50050
     620      444        4     0.00000   23.22851    7.03017    3.07831
     621      444        3     0.00000   22.82368    5.21026    9.66422
     622      444        4     0.00000   23.25927    6.10668   10.08640
     623      444        3     0.00000   22.82000   18.38050   22.81185
     624      444        4     0.00000   23.25506   19.27140   23.24586
     625        1        5     0.00000   14.15814   18.83160   13.28170
     626        1        6     0.00000   14.99252   18.54795   12.83034
     627        1        6     0.00000   13.85793   19.62602   12.77198
     628        2        5     0.00000    5.77125   11.11531   12.84190
     629        2        6     0.00000    5.08697   10.61558   12.32955
     630        2        6     0.00000    6.41004   11.43497   12.15631
     631        3        5     0.00000   12.57324   11.97624   10.79723
     632        3        6     0.00000   12.36083   12.04985   11.76147
     633        3        6     0.00000   12.71940   11.00806   10.64818
     634        4        5     0.00000   23.10496   17.27799    9.05092
     635        4        6     0.00000   22.53004   17.72987    8.38321
     636        4        6     0.00000   23.15438   16.33898    8.74099
     637        5        5     0.00000   22.78215    3.29677   23.59102
     638        5        6     0.00000   22.14493    4.05070   23.51637
     639        5        6     0.00000   22.50034    2.81307   24.40779
     640        6        5     0.00000   19.38181   20.53164   18.41231
     641        6        6     0.00000   20.23064   20.07134   18.63207
     642        6        6     0.00000   18.67466   19.90914   18.71725
     643        7        5     0.00000   25.54185   17.00433   26.15068
     644        7        6     0.00000   24.58628   17.22068   26.29552
     645        7        6     0.00000   25.60862   16.81032   25.18197
     646        8        5     0.00000   24.45143   12.63134    6.88454
     647        8        6     0.00000   24.78528   13.50041    6.54674
     648        8        6     0.00000   25.26819   12.12950    7.13217
     649        9        5     0.00000    5.12062    8.10114   18.04612
     650        9        6     0.00000    4.87719    9.02017   18.32319
     651        9        6     0.00000    5.60011    7.72575   18.82661
     652       10        5     0.00000   25.79158    2.13326    2.39456
     653       10        6     0.00000   26.56760    2.27469    2.99314
     654       10        6     0.00000   25.00190    2.30519    2.96712
     655       11        5     0.00000    3.83435   10.61427   15.63105
     656       11        6     0.00000    4.36405    9.80696   15.41076
     657       11        6     0.00000    2.96370   10.46942   15.18258
     658       12        5     0.00000   20.47538    1.51392    1.22975
     659       12        6     0.00000   21.15598    2.22632    1.12749
     660       12        6     0.00000   19.67938    1.86171    0.75473
     661       13        5     0.00000   13.46519    2.62458    0.23580
     662       13        6     0.00000   12.93023    3.43898    0.41272
     663       13        6     0.00000   14.40235    2.94372    0.21083
     664       14        5     0.00000   12.21993   22.49692   11.78329
     665       14        6     0.00000   13.01172   22.39519   11.19733
     666       14        6     0.00000   11.50280   22.81474   11.17893
     667       15        5     0.00000    5.64901   11.85847    0.27129
     668       15        6     0.00000    5.28965   12.45994   -0.42849
     669       15        6     0.00000    5.05911   11.06353    0.24316
     670       16        5     0.00000   19.95988   19.52954    7.36745
     671       16        6     0.00000   20.53164   19.43044    8.16975
     672       16        6     0.00000   19.03428   19.49484    7.71760
     673       17        5     0.00000   12.58796   23.91752   17.36263
     674       17        6     0.00000   12.74043   24.85994   17.09975
     675       17        6     0.00000   12.98859   23.84339   18.26510
     676       18        5     0.00000   21.58736    8.76176    9.01544
     677       18        6     0.00000   22.47694    8.40713    9.26701
     678       18        6     0.00000   21.03663    7.95603    8.84851
     679       19        5     0.00000   16.35344   25.70063    1.76129
     680       19        6     0.00000   15.50671   25.66435    2.27338
     681       19        6     0.00000   17.04192   25.93065    2.43505
     682       20        5     0.00000   15.92758   13.45967   22.24850
     683       20        6     0.00000   15.92206   12.50568   21.98299
     684       20        6     0.00000   14.97359   13.72544   22.23930
     685       21        5     0.00000    9.98914   17.30927    3.38956
     686       21        6     0.00000   10.23572   17.56268    2.46449
     687       21        6     0.00000    9.07695   17.67493    3.51206
     688       22        5     0.00000   16.20202   10.15475   13.52434
     689       22        6     0.00000   15.75118    9.33142   13.83874
     690       22        6     0.00000   16.98119    9.82905   13.00778
     691       23        5     0.00000    3.31674    1.81755    1.55151
     692       23        6     0.00000    2.60487    1.14668    1.39668
     693       23        6     0.00000    3.81253    1.47607    2.33778
     694       24        5     0.00000   11.02515    8.46786   24.46326
     695       24        6     0.00000   11.81273    7.87664   24.35863
     696       24        6     0.00000   10.94181    8.59982   25.44117
     697       25        5     0.00000   15.17048   25.29895   22.62915
     698       25        6     0.00000   15.38263   25.48191   21.67937
     699       25        6     0.00000   15.39945   26.13911   23.09997
     700       26        5     0.00000   10.64239    4.43924   15.53615
     701       26        6     0.00000   11.46389    4.94949   15.32322
     702       26        6     0.00000   10.79802    3.54308   15.14551
     703       27        5     0.00000   24.76557   22.57447   22.38678
     704       27        6     0.00000   25.57445   22.95880   21.96459
     705       27        6     0.00000   24.01295   23.07657   21.98457
     706       28        5     0.00000   11.51673    3.47579    9.60034
     707       28        6     0.00000   12.24622    3.75943    8.99414
     708       28        6     0.00000   11.88055    3.62090   10.50964
     709       29        5     0.00000   16.95491   13.86503   15.33768
     710       29        6     0.00000   17.24144   13.39395   16.15996
     711       29        6     0.00000   17.72172   13.77065   14.71807
     712       30        5     0.00000    9.23362   15.81848   22.24061
     713       30        6     0.00000    9.68183   16.58083   21.79477
     714       30        6     0.00000    9.32905   16.00565   23.20827
     715       31        5     0.00000    1.46345    7.02912   25.79264
     716       31        6     0.00000    0.69689    7.63059   25.96798
     717       31        6     0.00000    1.26550    6.62823   24.90910
     718       32        5     0.00000   21.43910   21.46092    4.37457
     719       32        6     0.00000   20.76034   20.77138    4.16427
     720       32        6     0.00000   21.91649   21.60708    3.51942
     721       33        5     0.00000    6.92923    5.57119    6.52045
     722       33        6     0.00000    6.13770    5.42056    5.94422
     723       33        6     0.00000    7.59773    5.98707    5.91951
     724       34        5     0.00000   12.06930   10.41816    4.15480
     725       34        6     0.00000   12.57087   10.77541    3.37931
     726       34        6     0.00000   12.70284    9.79619    4.59250
     727       35        5     0.00000    0.39300   24.55211   19.58711
     728       35        6     0.00000    1.05704   24.38571   20.30241
     729       35        6     0.00000   -0.01236   25.42382   19.82371
     730       36        5     0.00000   11.88555   25.10521    1.96476
     731       36        6     0.00000   11.59717   25.97271    1.58385
     732       36        6     0.00000   12.81667   24.99243    1.64746
     733       37        5     0.00000   22.44040    0.53575   12.12345
     734       37        6     0.00000   22.77189   -0.38985   12.24228
     735       37        6     0.00000   23.02347    1.08464   12.70599
     736       38        5     0.00000    3.41822   23.30554    2.04835
     737       38        6     0.00000    3.00681   22.86075    2.83147
     738       38        6     0.00000    4.36905   23.03030    2.07780
     739       39        5     0.00000    3.33830   15.05350   15.72858
     740       39        6     0.00000    3.27547   16.04114   15.69230
     741       39        6     0.00000    4.30307   14.87080   15.85555
     742       40        5     0.00000   25.01294   23.81657   25.42802
     743       40        6     0.00000   24.75216   22.86942   25.55315
     744       40        6     0.00000   25.73612   23.78845   24.75242
     745       41        5     0.00000   25.56840   10.63162   24.27898
     746       41        6     0.00000   24.71431   10.55932   24.77451
     747       41        6     0.00000   25.56709    9.85349   23.66673
     748       42        5     0.00000   24.18198    8.80934   13.60793
     749       42        6     0.00000   24.60127    9.37663   14.30272
     750       42        6     0.00000   23.22247    9.05276   13.63448
     751       43        5     0.00000    0.38485   12.62082   17.84370
     752       43        6     0.00000   -0.29758   12.43812   17.14996
     753       43        6     0.00000   -0.12907   12.68181   18.68781
     754       44        5     0.00000    2.97185   14.45125    0.33333
     755       44        6     0.00000    2.24630   13.91655    0.74395
     756       44        6     0.00000    3.72578   14.37764    0.97134
     757       45        5     0.00000   26.36519   16.26459    3.37642
     758       45        6     0.00000   25.66461   15.89288    3.96895
     759       45        6     0.00000   25.96009   17.08372    2.99498
     760       46        5     0.00000   17.96541   25.96298   14.10872
     761       46        6     0.00000   18.07030   26.01135   15.09215
     762       46        6     0.00000   17.09187   25.51661   13.97360
     763       47        5     0.00000   16.65154    3.30202   17.42835
     764       47        6     0.00000   16.29561    4.22184   17.34002
     765       47        6     0.00000   16.90759    3.04388   16.50749
     766       48        5     0.00000   24.90358   16.55665   14.36239
     767       48        6     0.00000   25.48980   15.79692   14.11687
     768       48        6     0.00000   24.16016   16.51800   13.70940
     769       49        5     0.00000    8.12322   20.49352   18.93255
     770       49        6     0.00000    8.52806   19.84947   19.56661
     771       49        6     0.00000    8.89635   20.90887   18.47408
     772       50        5     0.00000   15.52826    0.50525    8.65661
     773       50        6     0.00000   14.61949    0.21793    8.92474
     774       50        6     0.00000   15.70755    0.00973    7.81828
     775       51        5     0.00000    8.73231   21.26717    8.06171
     776       51        6     0.00000    8.08458   21.55266    8.75387
     777       51        6     0.00000    8.34772   20.43437    7.68895
     778       52        5     0.00000   23.35917   26.04474    0.60830
     779       52        6     0.00000   22.58630   26.22428    0.01577
     780       52        6     0.00000   23.19434   26.60230    1.40956
     781       53        5     0.00000   19.83816    8.10640   19.46593
     782       53        6     0.00000   19.45278    8.26702   20.36340
     783       53        6     0.00000   20.24563    8.97048   19.20936
     784       54        5     0.00000    1.41376   13.19285   12.68470
     785       54        6     0.00000    1.51024   12.38660   12.11793
     786       54        6     0.00000    1.47501   13.95073   12.05037
     787       55        5     0.00000   18.17493   13.50199    2.39588
     788       55        6     0.00000   19.10210   13.23412    2.17480
     789       55        6     0.00000   17.92230   14.13711    1.67953
     790       56        5     0.00000   13.24884   11.08850   15.92600
     791       56        6     0.00000   13.29668   10.31826   15.30560
     792       56        6     0.00000   14.10714   11.06405   16.41890
     793       57        5     0.00000    5.39401    1.13432   24.49401
     794       57        6     0.00000    5.22998    1.98395   24.97561
     795       57        6     0.00000    5.97498    0.61251   25.10258
     796       58        5     0.00000   23.81079   12.63712   13.76618
     797       58        6     0.00000   24.62677   12.15368   13.48122
     798       58        6     0.00000   24.00611   13.58848   13.57402
     799       59        5     0.00000   25.83338    1.33989   10.41605
     800       59        6     0.00000   25.39832    1.06913    9.56880
     801       59        6     0.00000   25.36703    0.81414   11.11347
     802       60        5     0.00000   19.22014    5.22787   19.41072
     803       60        6     0.00000   18.94911    5.49654   20.32528
     804       60        6     0.00000   18.39391    5.31936   18.87235
     805       61        5     0.00000   12.96808    9.93315   22.15597
     806       61        6     0.00000   12.45337   10.35586   21.42332
     807       61        6     0.00000   13.91524   10.04198   21.88862
     808       62        5     0.00000   13.02381    7.76702   12.84716
     809       62        6     0.00000   12.78328    8.72390   12.92970
     810       62        6     0.00000   12.37661    7.40372   12.19128
     811       63        5     0.00000   17.99670    8.32380    3.97526
     812       63        6     0.00000   17.67704    7.88216    4.80148
     813       63        6     0.00000   17.64365    9.24703    4.03335
     814       64        5     0.00000    2.22527   13.21940   21.70986
     815       64        6     0.00000    2.41402   13.92102   22.38257
     816       64        6     0.00000    1.55072   13.62633   21.10997
     817      444        1     0.00000    8.28516    6.44132   51.23722
     818      444        1     0.00000    8.27964   19.55951   38.10825
     819      444        1     0.00000   21.45382    6.46656   38.12087
     820      444        1     0.00000   21.45040   19.60499   51.27534
     821      444        1     0.00000   17.99223   19.83659   51.26509
     822      444        1     0.00000   17.97987    6.69369   38.11509
     823      444        1     0.00000    4.87772   19.86866   38.10142
     824      444        1     0.00000    4.87194    6.72681   51.24143
     825      444        1     0.00000   17.98382    6.45499   27.58310
     826      444        1     0.00000   18.00537   19.60499   40.74598
     827      444        1     0.00000    4.87299    6.41530   40.75492
     828      444        1     0.00000    4.86615   19.56503   27.61123
     829      444        1     0.00000    8.27937   19.85683   27.60860
     830      444        1     0.00000    8.26045    6.72287   40.75361
     831      444        1     0.00000   21.43752   19.86866   40.72863
     832      444        1     0.00000   21.44146    6.70394   27.59861
     833      444        1     0.00000   24.97324    8.28647   32.72292
     834      444        1     0.00000   24.98533   21.42201   45.82796
     835      444        1     0.00000   11.84349    8.26754   45.82086
     836      444        1     0.00000   11.82798   21.41964   32.71529
     837      444        1     0.00000   24.98165   18.04217   46.16155
     838      444        1     0.00000   24.97377    4.85564   32.99841
     839      444        1     0.00000   11.83192   18.01089   33.00604
     840      444        1     0.00000   11.85085    4.90243   46.14972
     841      444        1     0.00000    1.32254   18.00747   32.72370
     842      444        1     0.00000    1.30230    4.90217   45.85661
     843      444        1     0.00000   14.45098   18.03481   45.83874
     844      444        1     0.00000   14.46124    4.83776   32.70004
     845      444        1     0.00000    1.31387    8.29856   46.15761
     846      444        1     0.00000    1.32544   21.43068   32.99263
     847      444        1     0.00000   14.46702    8.28121   32.96844
     848      444        1     0.00000   14.44993   21.41333   46.16418
     849      444        1     0.00000    6.42949   24.98034   34.55650
     850      444        1     0.00000    6.41688   11.84033   47.70570
     851      444        1     0.00000   19.58895   24.93381   47.70150
     852      444        1     0.00000   19.57555   11.81851   34.58410
     853      444        1     0.00000   19.86892   24.96562   44.28013
     854      444        1     0.00000   19.84815   11.81773   31.15195
     855      444        1     0.00000    6.72813   24.96772   31.15694
     856      444        1     0.00000    6.72550   11.81641   44.31141
     857      444        1     0.00000    6.38796    1.33201   44.33481
     858      444        1     0.00000    6.43239   14.45519   31.15931
     859      444        1     0.00000   19.61156    1.34515   31.12198
     860      444        1     0.00000   19.58948   14.51697   44.31430
     861      444        1     0.00000   19.83790    1.33700   34.59330
     862      444        1     0.00000   19.85499   14.51749   47.70702
     863      444        1     0.00000    6.76151    1.34068   47.67390
     864      444        1     0.00000    6.73154   14.44783   34.56570
     865      444        1     0.00000    6.44027    8.28043   27.59599
     866      444        1     0.00000    6.42713   21.41675   40.73678
     867      444        1     0.00000   19.60236    8.33116   40.75124
     868      444        1     0.00000   19.59106   21.45382   27.61702
     869      444        1     0.00000   19.83711   17.99354   27.62359
     870      444        1     0.00000   19.82712    4.86326   40.76990
     871      444        1     0.00000    6.72418   18.01878   40.74625
     872      444        1     0.00000    6.71682    4.85669   27.57837
     873      444        1     0.00000    6.42371   18.01273   51.25536
     874      444        1     0.00000    6.40636    4.86878   38.12508
     875      444        1     0.00000   19.57897   18.00853   38.10957
     876      444        1     0.00000   19.60420    4.86063   51.23117
     877      444        1     0.00000   19.84132    8.31513   51.24774
     878      444        1     0.00000   19.84316   21.44435   38.08985
     879      444        1     0.00000    6.73259    8.25387   38.11167
     880      444        1     0.00000    6.71682   21.42043   51.26246
     881      444        1     0.00000    8.25650   24.99348   46.18574
     882      444        1     0.00000    8.28673   11.80852   33.00630
     883      444        1     0.00000   21.44593   24.98218   32.96818
     884      444        1     0.00000   21.43331   11.87188   46.15971
     885      444        1     0.00000   17.98382   24.99532   32.73080
     886      444        1     0.00000   18.00458   11.87293   45.85950
     887      444        1     0.00000    4.91373   24.98218   45.82717
     888      444        1     0.00000    4.87693   11.81168   32.71056
     889      444        1     0.00000   18.00195    1.28732   46.14762
     890      444        1     0.00000   18.00511   14.46255   32.99973
     891      444        1     0.00000    4.88455    1.33017   33.00078
     892      444        1     0.00000    4.88745   14.47359   46.14236
     893      444        1     0.00000    8.28227    1.32333   32.69321
     894      444        1     0.00000    8.28095   14.45125   45.83243
     895      444        1     0.00000   21.42254    1.31650   45.87475
     896      444        1     0.00000   21.43621   14.45703   32.73474
     897      444        1     0.00000   24.95274    6.44579   44.31194
     898      444        1     0.00000   24.96956   19.57791   31.14564
     899      444        1     0.00000   11.81930    6.43896   31.11935
     900      444        1     0.00000   11.81168   19.56188   44.31272
     901      444        1     0.00000   24.97061   19.86393   34.56833
     902      444        1     0.00000   24.96457    6.75757   47.71517
     903      444        1     0.00000   11.80958   19.88233   47.68835
     904      444        1     0.00000   11.83140    6.68370   34.56386
     905      444        1     0.00000    1.32964    6.43580   34.56044
     906      444        1     0.00000    1.33253   19.57029   47.68336
     907      444        1     0.00000   14.48884    6.41898   47.66837
     908      444        1     0.00000   14.46676   19.57423   34.56964
     909      444        1     0.00000    1.33122   19.89547   44.30563
     910      444        1     0.00000    1.32281    6.70683   31.13644
     911      444        1     0.00000   14.47017   19.86603   31.15458
     912      444        1     0.00000   14.48463    6.76072   44.29695
     913      444        1     0.00000   18.02877   19.88995   27.61675
     914      444        1     0.00000   18.03481    6.77097   40.75518
     915      444        1     0.00000    4.85984   19.85814   40.74178
     916      444        1     0.00000    4.87588    6.71814   27.58994
     917      444        1     0.00000    8.28043    6.42003   27.58363
     918      444        1     0.00000    8.28989   19.57923   40.74651
     919      444        1     0.00000   21.39704    6.42319   40.76254
     920      444        1     0.00000   21.39835   19.55951   27.62385
     921      444        1     0.00000    8.28043   19.85788   51.25615
     922      444        1     0.00000    8.28989    6.68528   38.11588
     923      444        1     0.00000   21.40492   19.88022   38.09222
     924      444        1     0.00000   21.41071    6.75599   51.24826
     925      444        1     0.00000   18.03560    6.41740   51.23091
     926      444        1     0.00000   18.01378   19.57003   38.10747
     927      444        1     0.00000    4.84828    6.43843   38.11483
     928      444        1     0.00000    4.85958   19.57502   51.25772
     929      444        1     0.00000    1.33201   18.00747   46.12186
     930      444        1     0.00000    1.32596    4.86904   32.99999
     931      444        1     0.00000   14.46939   18.01326   33.00420
     932      444        1     0.00000   14.49120    4.86063   46.10109
     933      444        1     0.00000    1.32491    8.27228   32.69689
     934      444        1     0.00000    1.33621   21.45724   45.86871
     935      444        1     0.00000   14.48016    8.31723   45.86713
     936      444        1     0.00000   14.46623   21.42779   32.71976
     937      444        1     0.00000   24.96089    8.31618   46.14631
     938      444        1     0.00000   24.97324   21.42227   33.00025
     939      444        1     0.00000   11.82929    8.25309   33.00814
     940      444        1     0.00000   11.80826   21.44882   46.12790
     941      444        1     0.00000   24.97009   18.01878   32.71345
     942      444        1     0.00000   24.95326    4.89034   45.88290
     943      444        1     0.00000   11.81352   17.99670   45.87528
     944      444        1     0.00000   11.82535    4.86983   32.67586
     945      444        1     0.00000   19.85946    1.31702   44.31115
     946      444        1     0.00000   19.87365   14.45677   31.17114
     947      444        1     0.00000    6.71656    1.31808   31.13197
     948      444        1     0.00000    6.71524   14.45256   44.27172
     949      444        1     0.00000    6.44921    1.33411   34.56254
     950      444        1     0.00000    6.45105   14.47727   47.70439
     951      444        1     0.00000   19.56398    1.28732   47.71254
     952      444        1     0.00000   19.56556   14.46045   34.56596
     953      444        1     0.00000   19.88338   24.98612   34.53363
     954      444        1     0.00000   19.87286   11.87792   47.72726
     955      444        1     0.00000    6.69737   24.99033   47.74330
     956      444        1     0.00000    6.72366   11.80563   34.56885
     957      444        1     0.00000    6.47602   24.98192   44.26725
     958      444        1     0.00000    6.44027   11.81510   31.14774
     959      444        1     0.00000   19.54584   24.99638   31.16693
     960      444        1     0.00000   19.56687   11.87950   44.29248
     961      444        1     0.00000   19.89232   18.03613   51.27323
     962      444        1     0.00000   19.89074    4.90217   38.12928
     963      444        1     0.00000    6.71340   17.99985   38.10668
     964      444        1     0.00000    6.72392    4.87535   51.22933
     965      444        1     0.00000    6.43370    8.29173   51.24826
     966      444        1     0.00000    6.44579   21.42674   38.09879
     967      444        1     0.00000   19.54374    8.25966   38.10983
     968      444        1     0.00000   19.55084   21.40519   51.26745
     969      444        1     0.00000   19.87733    8.26570   27.59940
     970      444        1     0.00000   19.87681   21.43463   40.73047
     971      444        1     0.00000    6.70026    8.28989   40.75124
     972      444        1     0.00000    6.71551   21.41833   27.61360
     973      444        1     0.00000    6.43055   18.00301   27.60782
     974      444        1     0.00000    6.43291    4.84907   40.76412
     975      444        1     0.00000   19.56766   18.04112   40.74703
     976      444        1     0.00000   19.55031    4.89507   27.58074
     977      444        1     0.00000   18.04480    1.34436   32.68296
     978      444        1     0.00000   18.02167   14.51250   45.87186
     979      444        1     0.00000    4.83513    1.33280   45.89841
     980      444        1     0.00000    4.86983   14.45256   32.72265
     981      444        1     0.00000    8.31618    1.34279   46.10661
     982      444        1     0.00000    8.29357   14.45046   33.00183
     983      444        1     0.00000   21.40440    1.33306   33.03390
     984      444        1     0.00000   21.42201   14.50987   46.14709
     985      444        1     0.00000    8.29357   24.97035   32.71792
     986      444        1     0.00000    8.28831   11.81431   45.87370
     987      444        1     0.00000   21.43174   24.96273   45.84426
     988      444        1     0.00000   21.41018   11.81483   32.71634
     989      444        1     0.00000   18.02745   24.93539   46.13658
     990      444        1     0.00000   18.01562   11.82430   33.01760
     991      444        1     0.00000    4.86536   24.97876   32.99342
     992      444        1     0.00000    4.85459   11.83797   46.14157
     993      444        1     0.00000    1.32333   19.87208   34.56123
     994      444        1     0.00000    1.31255    6.73496   47.72121
     995      444        1     0.00000   14.44809   19.84552   47.72358
     996      444        1     0.00000   14.46702    6.71340   34.52653
     997      444        1     0.00000    1.30809    6.46157   44.28933
     998      444        1     0.00000    1.32307   19.56556   31.15589
     999      444        1     0.00000   14.45650    6.40505   31.14143
    1000      444        1     0.00000   14.45151   19.60052   44.27802
    1001      444        1     0.00000   24.97929   19.85473   44.27172
    1002      444        1     0.00000   24.97061    6.72129   31.16115
    1003      444        1     0.00000   11.83192   19.85788   31.15064
    1004      444        1     0.00000   11.84428    6.70999   44.25331
    1005      444        1     0.00000   24.98034    6.42135   34.55860
    1006      444        1     0.00000   24.98428   19.60998   47.71885
    1007      444        1     0.00000   11.85111    6.46367   47.71596
    1008      444        1     0.00000   11.82824   19.57266   34.57122
    1009      444        2     0.00000    7.33170    7.32959   26.27239
    1010      444        2     0.00000    7.33143   20.46644   39.42265
    1011      444        2     0.00000   20.47302    7.34431   39.43632
    1012      444        2     0.00000   20.46697   20.47486   26.30157
    1013      444        2     0.00000   18.96278   18.96409   26.30026
    1014      444        2     0.00000   18.96488    5.83907   39.44237
    1015      444        2     0.00000    5.81935   18.96146   39.42423
    1016      444        2     0.00000    5.82303    5.82040   26.26608
    1017      444        2     0.00000   18.96041    7.33774   26.27108
    1018      444        2     0.00000   18.95752   20.49010   39.41897
    1019      444        2     0.00000    5.81515    7.32276   39.43316
    1020      444        2     0.00000    5.81672   20.46828   26.29237
    1021      444        2     0.00000    7.32565   18.96041   26.28790
    1022      444        2     0.00000    7.31934    5.81015   39.43921
    1023      444        2     0.00000   20.46592   18.98118   39.41949
    1024      444        2     0.00000   20.47197    5.83302   26.27108
    1025      444        2     0.00000    0.00815    7.32617   33.60750
    1026      444        2     0.00000    0.01551   20.48301   46.74330
    1027      444        2     0.00000   13.16577    7.33459   46.73568
    1028      444        2     0.00000   13.14737   20.47197   33.61723
    1029      444        2     0.00000    0.01183   18.97250   45.23806
    1030      444        2     0.00000    0.00447    5.81515   32.10094
    1031      444        2     0.00000   13.15078   18.96514   32.10725
    1032      444        2     0.00000   13.16761    5.83197   45.22386
    1033      444        2     0.00000    0.00237   18.96830   33.61381
    1034      444        2     0.00000   -0.01025    5.85432   46.76039
    1035      444        2     0.00000   13.13107   18.97066   46.75066
    1036      444        2     0.00000   13.14632    5.80463   33.58831
    1037      444        2     0.00000   -0.01025    7.35930   45.24857
    1038      444        2     0.00000    0.00342   20.47223   32.10094
    1039      444        2     0.00000   13.14316    7.31803   32.08543
    1040      444        2     0.00000   13.13081   20.48143   45.24463
    1041      444        2     0.00000    7.33800    0.00815   33.60698
    1042      444        2     0.00000    7.33432   13.14579   46.75434
    1043      444        2     0.00000   20.47696   -0.01814   46.75829
    1044      444        2     0.00000   20.47328   13.13790   33.62669
    1045      444        2     0.00000   18.96935   -0.01709   45.24884
    1046      444        2     0.00000   18.96646   13.14027   32.11645
    1047      444        2     0.00000    5.82829    0.00473   32.10015
    1048      444        2     0.00000    5.82461   13.14526   45.24568
    1049      444        2     0.00000    7.33248    0.01840   45.25015
    1050      444        2     0.00000    7.33459   13.13238   32.10699
    1051      444        2     0.00000   20.47407    0.02024   32.10042
    1052      444        2     0.00000   20.49562   13.17996   45.23674
    1053      444        2     0.00000   18.96593    0.02156   33.60593
    1054      444        2     0.00000   18.94622   13.17918   46.78247
    1055      444        2     0.00000    5.82592    0.01735   46.76197
    1056      444        2     0.00000    5.82645   13.12949   33.61565
    1057      444        3     0.00000    8.51281    4.66374   49.63944
    1058      444        3     0.00000    7.81776    5.34801   50.76115
    1059      444        3     0.00000    8.50072   17.77982   36.51494
    1060      444        3     0.00000    7.80882   18.46725   37.63612
    1061      444        3     0.00000   17.78455   21.61707   49.66231
    1062      444        3     0.00000   18.46226   20.93043   50.79164
    1063      444        3     0.00000   17.77062    8.48048   36.51126
    1064      444        3     0.00000   18.45095    7.78648   37.63823
    1065      444        3     0.00000    4.64612    8.51859   49.66073
    1066      444        3     0.00000    5.33960    7.82407   50.77639
    1067      444        3     0.00000   17.77824    4.66242   29.17457
    1068      444        3     0.00000   18.45621    5.36115   28.05287
    1069      444        3     0.00000   17.80190   17.83240   42.35480
    1070      444        3     0.00000   18.47908   18.51483   41.22284
    1071      444        3     0.00000    4.64218    4.64770   42.36111
    1072      444        3     0.00000    5.33986    5.32383   41.23389
    1073      444        3     0.00000    8.50019   21.63678   29.20586
    1074      444        3     0.00000    7.80987   20.94883   28.08336
    1075      444        3     0.00000    8.48994    8.50308   42.34087
    1076      444        3     0.00000    7.79357    7.81855   41.22206
    1077      444        3     0.00000   23.36889    8.49336   30.94585
    1078      444        3     0.00000   24.49717    7.81303   31.63276
    1079      444        3     0.00000   10.24019    8.49546   44.05379
    1080      444        3     0.00000   11.37004    7.80120   44.72807
    1081      444        3     0.00000   23.38624   17.82872   47.93730
    1082      444        3     0.00000   24.51058   18.51588   47.25276
    1083      444        3     0.00000   23.38624    4.64323   34.79335
    1084      444        3     0.00000   24.50663    5.32698   34.09357
    1085      444        3     0.00000   10.23467   17.78639   34.78573
    1086      444        3     0.00000   11.35769   18.47908   34.09935
    1087      444        3     0.00000    2.91927   17.78482   30.94138
    1088      444        3     0.00000    1.79573   18.47408   31.62934
    1089      444        3     0.00000   16.06217   17.82740   44.07666
    1090      444        3     0.00000   14.92732   18.50931   44.75042
    1091      444        3     0.00000   16.05192    4.63245   30.90879
    1092      444        3     0.00000   14.92969    5.31094   31.60621
    1093      444        3     0.00000    2.90981    8.51623   47.93493
    1094      444        3     0.00000    1.78600    7.82749   47.24961
    1095      444        3     0.00000   16.05796    8.49047   34.76102
    1096      444        3     0.00000   14.93889    7.80751   34.06123
    1097      444        3     0.00000    4.65112   23.38440   34.77731
    1098      444        3     0.00000    5.33618   24.50795   34.08726
    1099      444        3     0.00000    4.63114   10.25728   47.93599
    1100      444        3     0.00000    5.32146   11.37215   47.23936
    1101      444        3     0.00000   21.65992   23.38046   44.05326
    1102      444        3     0.00000   20.96513   24.49638   44.74726
    1103      444        3     0.00000   21.63074   10.21784   30.93849
    1104      444        3     0.00000   20.93989   11.34270   31.62303
    1105      444        3     0.00000    8.50361   23.36758   30.93954
    1106      444        3     0.00000    7.82039   24.49454   31.62724
    1107      444        3     0.00000    4.61694    2.92532   44.10400
    1108      444        3     0.00000    5.29727    1.80388   44.80405
    1109      444        3     0.00000    4.65033   16.05165   30.94112
    1110      444        3     0.00000    5.33907   14.92706   31.62960
    1111      444        3     0.00000   21.63915    2.92453   34.81175
    1112      444        3     0.00000   20.93595    1.80519   34.12695
    1113      444        3     0.00000   21.64257   16.10791   47.92547
    1114      444        3     0.00000   20.94935   14.98647   47.23646
    1115      444        3     0.00000    8.50755   16.04929   34.78283
    1116      444        3     0.00000    7.82328   14.92259   34.09488
    1117      444        3     0.00000    4.65900    8.49231   29.19166
    1118      444        3     0.00000    5.34696    7.80856   28.06654
    1119      444        3     0.00000    4.65480   21.64730   42.33535
    1120      444        3     0.00000    5.33381   20.95119   41.21128
    1121      444        3     0.00000   21.62600   17.78508   29.21821
    1122      444        3     0.00000   20.93016   18.46646   28.09572
    1123      444        3     0.00000   21.61128    4.66032   42.37452
    1124      444        3     0.00000   20.92149    5.33513   41.24256
    1125      444        3     0.00000    8.49835    4.63745   29.17168
    1126      444        3     0.00000    7.80987    5.32540   28.05129
    1127      444        3     0.00000    4.64954   17.79901   49.65101
    1128      444        3     0.00000    5.33145   18.48407   50.78139
    1129      444        3     0.00000    4.64218    4.65506   36.51626
    1130      444        3     0.00000    5.31831    5.34302   37.64559
    1131      444        3     0.00000   21.63389    8.53700   49.65968
    1132      444        3     0.00000   20.93936    7.84878   50.77850
    1133      444        3     0.00000   21.62732   21.65255   36.49050
    1134      444        3     0.00000   20.93516   20.97144   37.61667
    1135      444        3     0.00000    8.50992    8.46970   36.51705
    1136      444        3     0.00000    7.82354    7.77990   37.64086
    1137      444        3     0.00000    8.48442   23.39229   47.94992
    1138      444        3     0.00000    7.78937   24.51846   47.27563
    1139      444        3     0.00000    8.50571   10.20391   34.78468
    1140      444        3     0.00000    7.81671   11.33219   34.09804
    1141      444        3     0.00000   17.77272   23.40254   30.93928
    1142      444        3     0.00000   18.45305   24.52503   31.63512
    1143      444        3     0.00000   17.79191   10.28619   44.07377
    1144      444        3     0.00000   18.47461   11.40711   44.76356
    1145      444        3     0.00000    4.65690   10.22100   30.92509
    1146      444        3     0.00000    5.34643   11.34218   31.61619
    1147      444        3     0.00000   17.79454    2.89193   47.91942
    1148      444        3     0.00000   18.47303    1.76050   47.23962
    1149      444        3     0.00000   17.79191   16.06164   34.78073
    1150      444        3     0.00000   18.47540   14.93573   34.09278
    1151      444        3     0.00000    4.66374    2.93136   34.77600
    1152      444        3     0.00000    5.35616    1.80624   34.09146
    1153      444        3     0.00000    8.49888    2.91296   30.90774
    1154      444        3     0.00000    7.81066    1.79178   31.59911
    1155      444        3     0.00000    8.50256   16.04535   44.05537
    1156      444        3     0.00000    7.81119   14.92180   44.73911
    1157      444        3     0.00000   23.34655    4.67136   44.10768
    1158      444        3     0.00000   24.47745    5.35747   44.78906
    1159      444        3     0.00000   10.22836    4.64849   30.90169
    1160      444        3     0.00000   11.35006    5.34223   31.58649
    1161      444        3     0.00000   23.36968   21.64283   34.77048
    1162      444        3     0.00000   24.49796   20.95409   34.09251
    1163      444        3     0.00000   10.21627   21.65992   47.92205
    1164      444        3     0.00000   11.33718   20.97643   47.22201
    1165      444        3     0.00000   10.24045    8.47259   34.78914
    1166      444        3     0.00000   11.36032    7.78043   34.10014
    1167      444        3     0.00000    2.92295    4.65401   34.77705
    1168      444        3     0.00000    1.80020    5.34144   34.09067
    1169      444        3     0.00000   16.08530    4.64271   47.89287
    1170      444        3     0.00000   14.96307    5.32856   47.19677
    1171      444        3     0.00000    2.93452   21.66675   44.07902
    1172      444        3     0.00000    1.80729   20.98721   44.77460
    1173      444        3     0.00000    2.92374    8.48863   30.91957
    1174      444        3     0.00000    1.79730    7.80041   31.60489
    1175      444        3     0.00000   16.05770   21.65650   30.93560
    1176      444        3     0.00000   14.93889   20.96066   31.62513
    1177      444        3     0.00000   17.79507   21.67122   29.20612
    1178      444        3     0.00000   18.49485   20.98432   28.08704
    1179      444        3     0.00000   17.81557    8.54567   42.35322
    1180      444        3     0.00000   18.50878    7.86324   41.22679
    1181      444        3     0.00000    8.50177   17.79349   42.34245
    1182      444        3     0.00000    7.81723   18.48697   41.21969
    1183      444        3     0.00000    8.49415   21.64651   49.66547
    1184      444        3     0.00000    7.80935   20.95224   50.78743
    1185      444        3     0.00000   17.81978    4.64376   49.62866
    1186      444        3     0.00000   18.51036    5.32856   50.75563
    1187      444        3     0.00000   17.79349   17.78771   36.51705
    1188      444        3     0.00000   18.48407   18.47592   37.63823
    1189      444        3     0.00000    2.92663   17.79297   47.91049
    1190      444        3     0.00000    1.80388   18.47671   47.21543
    1191      444        3     0.00000   16.06138   17.79218   34.78704
    1192      444        3     0.00000   14.93968   18.48197   34.09882
    1193      444        3     0.00000   16.07742    8.54146   44.08165
    1194      444        3     0.00000   14.95440    7.85272   44.77171
    1195      444        3     0.00000   23.36758    8.53594   47.93336
    1196      444        3     0.00000   24.49112    7.84930   47.24330
    1197      444        3     0.00000   23.36679   17.79796   30.94191
    1198      444        3     0.00000   24.49454   18.48775   31.62171
    1199      444        3     0.00000   10.22626   17.78087   44.08087
    1200      444        3     0.00000   11.34270   18.46699   44.78039
    1201      444        3     0.00000   21.62022    2.93426   44.11004
    1202      444        3     0.00000   20.94620    1.79678   44.78801
    1203      444        3     0.00000   21.64546   16.05560   30.95111
    1204      444        3     0.00000   20.96513   14.92969   31.64169
    1205      444        3     0.00000    4.66637   16.07321   47.91601
    1206      444        3     0.00000    5.35826   14.94940   47.23278
    1207      444        3     0.00000   21.64572   23.37888   34.75234
    1208      444        3     0.00000   20.97196   24.50847   34.06097
    1209      444        3     0.00000   21.64125   10.26753   47.93336
    1210      444        3     0.00000   20.95934   11.40054   47.25224
    1211      444        3     0.00000    4.68582   23.38151   44.06167
    1212      444        3     0.00000    5.38350   24.50716   44.73780
    1213      444        3     0.00000   21.66281   17.82582   49.67256
    1214      444        3     0.00000   20.98248   18.51036   50.80137
    1215      444        3     0.00000   21.66517    4.66584   36.53519
    1216      444        3     0.00000   20.98458    5.36957   37.65505
    1217      444        3     0.00000    4.66032   21.64782   36.50443
    1218      444        3     0.00000    5.35090   20.95961   37.62719
    1219      444        3     0.00000   21.64730    8.48626   29.20454
    1220      444        3     0.00000   20.96854    7.79568   28.07443
    1221      444        3     0.00000   21.66176   21.65361   42.31852
    1222      444        3     0.00000   20.97065   20.96381   41.19945
    1223      444        3     0.00000    4.65059   17.78376   29.20822
    1224      444        3     0.00000    5.33750   18.47198   28.08257
    1225      444        3     0.00000   17.81189    2.93031   30.90406
    1226      444        3     0.00000   18.51509    1.81492   31.58964
    1227      444        3     0.00000   17.81531   16.11580   44.10058
    1228      444        3     0.00000   18.49669   14.98857   44.78564
    1229      444        3     0.00000    8.52990    2.93951   47.89866
    1230      444        3     0.00000    7.85009    1.81544   47.20176
    1231      444        3     0.00000    8.49678   10.21679   44.08928
    1232      444        3     0.00000    7.81539   11.34034   44.78249
    1233      444        3     0.00000   17.80926   23.33209   47.91233
    1234      444        3     0.00000   18.49880   24.45826   47.22753
    1235      444        3     0.00000   17.78771   10.22284   34.78862
    1236      444        3     0.00000   18.48223   11.34849   34.11013
    1237      444        3     0.00000    2.92137   21.65124   34.77679
    1238      444        3     0.00000    1.79678   20.96329   34.08831
    1239      444        3     0.00000   16.05928   21.61707   47.92863
    1240      444        3     0.00000   14.92522   20.93674   47.25224
    1241      444        3     0.00000    2.89877    4.66978   44.08297
    1242      444        3     0.00000    1.77680    5.36799   44.76277
    1243      444        3     0.00000   23.38703   21.64335   44.05379
    1244      444        3     0.00000   24.50926   20.94988   44.73859
    1245      444        3     0.00000   10.23467   21.63678   30.93429
    1246      444        3     0.00000   11.35769   20.94935   31.62145
    1247      444        3     0.00000   10.25438    4.67662   47.92126
    1248      444        3     0.00000   11.37898    5.37114   47.24330
    1249      444        3     0.00000    9.66895    5.22866   49.07373
    1250      444        4     0.00000   10.08693    6.13060   49.50274
    1251      444        3     0.00000    9.65712   18.34133   35.94213
    1252      444        4     0.00000   10.07904   19.24379   36.36800
    1253      444        3     0.00000   16.62552   21.06528   49.09055
    1254      444        4     0.00000   16.19019   20.17360   49.52430
    1255      444        3     0.00000   16.62158    7.92554   35.92084
    1256      444        4     0.00000   16.19308    7.02334   36.33934
    1257      444        3     0.00000    3.50286   21.08920   35.92951
    1258      444        4     0.00000    3.08042   20.18622   36.35275
    1259      444        3     0.00000   16.61448    5.20027   29.75054
    1260      444        4     0.00000   16.17626    6.09564   29.32652
    1261      444        3     0.00000   16.63419   18.37971   42.91657
    1262      444        4     0.00000   16.19335   19.26535   42.47467
    1263      444        3     0.00000    3.49576   18.34343   29.78524
    1264      444        4     0.00000    3.07174   19.24563   29.36174
    1265      444        3     0.00000    9.65949   21.08027   29.77709
    1266      444        4     0.00000   10.08851   20.18411   29.34755
    1267      444        3     0.00000    9.66080    7.95130   42.89397
    1268      444        4     0.00000   10.09508    7.06645   42.44865
    1269      444        3     0.00000   22.78425    9.64424   31.50447
    1270      444        4     0.00000   23.20223   10.06774   32.40956
    1271      444        3     0.00000   22.81238   22.79950   44.61504
    1272      444        4     0.00000   23.23272   23.21931   45.52092
    1273      444        3     0.00000    9.65949    9.64056   44.63317
    1274      444        4     0.00000   10.08746   10.05722   45.53616
    1275      444        3     0.00000   22.80081   16.68099   47.36974
    1276      444        4     0.00000   23.22326   16.25591   46.46754
    1277      444        3     0.00000   22.79818    3.48893   34.24393
    1278      444        4     0.00000   23.21642    3.05833   33.34226
    1279      444        3     0.00000    9.68473    3.52258   47.35055
    1280      444        4     0.00000   10.11322    3.10486   46.44730
    1281      444        3     0.00000    3.49419   16.62789   31.49948
    1282      444        4     0.00000    3.06859   16.20281   32.40010
    1283      444        3     0.00000    3.46133    3.51075   44.65105
    1284      444        4     0.00000    3.02679    3.09119   45.54983
    1285      444        3     0.00000    3.47631    9.67815   47.37947
    1286      444        4     0.00000    3.04782   10.10375   46.48095
    1287      444        3     0.00000    3.49366   22.80949   34.22106
    1288      444        4     0.00000    3.06464   23.23771   33.32333
    1289      444        3     0.00000    5.21552   22.80554   35.92951
    1290      444        4     0.00000    6.11772   23.22983   36.35275
    1291      444        3     0.00000   18.35631   22.76374   49.07741
    1292      444        4     0.00000   19.25746   23.18803   49.50301
    1293      444        3     0.00000   18.33292    9.64266   35.94844
    1294      444        4     0.00000   19.22671   10.06984   36.38613
    1295      444        3     0.00000   21.10629   22.81185   42.89213
    1296      444        4     0.00000   20.20725   23.24087   42.46495
    1297      444        3     0.00000   21.08211    9.64214   29.77736
    1298      444        4     0.00000   20.18464   10.06853   29.34571
    1299      444        3     0.00000    7.94157   22.79135   29.78498
    1300      444        4     0.00000    7.03911   23.21511   29.36253
    1301      444        3     0.00000    5.18687    3.49077   42.94733
    1302      444        4     0.00000    6.08617    3.05728   42.52830
    1303      444        3     0.00000   18.36105    3.51942   29.75291
    1304      444        4     0.00000   19.27560    3.11722   29.33756
    1305      444        3     0.00000   21.09315    3.51127   35.96737
    1306      444        4     0.00000   20.18963    3.09487   36.39665
    1307      444        3     0.00000    7.96234    3.50786   49.05559
    1308      444        4     0.00000    7.06119    3.07831   49.47488
    1309      444        3     0.00000    5.21683    9.64740   29.76921
    1310      444        4     0.00000    6.11851   10.07300   29.34597
    1311      444        3     0.00000   18.36000    9.70891   42.92315
    1312      444        4     0.00000   19.25746   10.13977   42.49676
    1313      444        3     0.00000   21.07738   16.62736   29.79733
    1314      444        4     0.00000   20.17728   16.19808   29.37568
    1315      444        3     0.00000    7.94499   16.63025   42.90422
    1316      444        4     0.00000    7.04595   16.20596   42.47310
    1317      444        3     0.00000    7.93947    3.48420   29.75107
    1318      444        4     0.00000    7.03622    3.05912   29.32994
    1319      444        3     0.00000    5.21736   16.64892   49.07425
    1320      444        4     0.00000    6.11930   16.22647   49.50064
    1321      444        3     0.00000    5.21394    3.50707   35.93556
    1322      444        4     0.00000    6.11746    3.08778   36.36116
    1323      444        3     0.00000   18.35369   16.63577   35.93609
    1324      444        4     0.00000   19.25773   16.21306   36.35669
    1325      444        3     0.00000   21.07212    9.68657   49.07977
    1326      444        4     0.00000   20.16045   10.10191   49.49276
    1327      444        3     0.00000    7.94604    9.62295   35.93793
    1328      444        4     0.00000    7.03964   10.04224   36.35695
    1329      444        3     0.00000    9.63688   22.82000   47.37763
    1330      444        4     0.00000   10.05565   23.24902   46.47569
    1331      444        3     0.00000    9.66343    9.62873   34.22790
    1332      444        4     0.00000   10.08824   10.05354   33.32622
    1333      444        3     0.00000   16.62210   22.81685   31.49501
    1334      444        4     0.00000   16.19387   23.23771   32.39616
    1335      444        3     0.00000   16.63840    9.70602   44.63186
    1336      444        4     0.00000   16.20281   10.13609   45.52565
    1337      444        3     0.00000    3.49918    9.64450   31.48055
    1338      444        4     0.00000    3.07253   10.06958   32.38065
    1339      444        3     0.00000   16.64550    3.47263   47.35266
    1340      444        4     0.00000   16.21464    3.04072   46.45834
    1341      444        3     0.00000   16.63735   16.63919   34.22395
    1342      444        4     0.00000   16.21254   16.21727   33.32123
    1343      444        3     0.00000    3.50812    3.50470   34.21370
    1344      444        4     0.00000    3.09041    3.08304   33.30782
    1345      444        3     0.00000    9.65344    3.49366   31.46583
    1346      444        4     0.00000   10.07641    3.07516   32.37092
    1347      444        3     0.00000    9.65633   16.61632   44.62213
    1348      444        4     0.00000   10.08325   16.18125   45.51776
    1349      444        3     0.00000   22.76690    5.22603   42.94996
    1350      444        4     0.00000   23.18961    6.12718   42.52278
    1351      444        3     0.00000   22.78162   18.35237   29.78866
    1352      444        4     0.00000   23.19960   19.25589   29.36253
    1353      444        3     0.00000    9.65318    5.20001   29.74450
    1354      444        4     0.00000   10.07615    6.10090   29.31758
    1355      444        3     0.00000   22.78609   21.08920   35.92426
    1356      444        4     0.00000   23.20775   20.18963   36.35538
    1357      444        3     0.00000   22.79713    7.98495   49.09370
    1358      444        4     0.00000   23.23219    7.09221   49.53035
    1359      444        3     0.00000    9.66764    7.91502   35.94529
    1360      444        4     0.00000   10.09561    7.01624   36.37220
    1361      444        3     0.00000    3.48709    5.20921   35.93845
    1362      444        4     0.00000    3.05360    6.10484   36.36694
    1363      444        3     0.00000    3.49445   18.35369   49.07005
    1364      444        4     0.00000    3.06385   19.25300   49.49512
    1365      444        3     0.00000    3.49576   21.10261   42.91789
    1366      444        4     0.00000    3.05755   20.20725   42.49360
    1367      444        3     0.00000    3.50365    7.93027   29.76579
    1368      444        4     0.00000    3.08173    7.02781   29.34098
    1369      444        3     0.00000   16.64077   21.10261   29.77998
    1370      444        4     0.00000   16.22358   20.19831   29.35465
    1371      444        3     0.00000   16.66548    7.97680   42.93366
    1372      444        4     0.00000   16.25223    7.06592   42.51621
    1373      444        3     0.00000    9.65108   18.35158   42.92972
    1374      444        4     0.00000   10.07063   19.26220   42.51936
    1375      444        3     0.00000    9.64661   21.09183   49.07819
    1376      444        4     0.00000   10.07300   20.18727   49.49407
    1377      444        3     0.00000   16.67231    5.21236   49.04034
    1378      444        4     0.00000   16.26275    6.12797   49.44885
    1379      444        3     0.00000   16.63551   18.34633   35.94555
    1380      444        4     0.00000   16.20833   19.24485   36.37483
    1381      444        3     0.00000    3.50943   16.64182   47.35345
    1382      444        4     0.00000    3.08751   16.21490   46.45098
    1383      444        3     0.00000    3.52941   22.81474   44.63370
    1384      444        4     0.00000    3.11880   23.24008   45.54063
    1385      444        3     0.00000   22.78819    9.68446   47.36869
    1386      444        4     0.00000   23.20275   10.09955   46.45519
    1387      444        3     0.00000   22.80028   22.79660   34.20240
    1388      444        4     0.00000   23.23062   23.21774   33.30230
    1389      444        3     0.00000   22.80081   16.63787   31.50342
    1390      444        4     0.00000   23.23482   16.21254   32.39905
    1391      444        3     0.00000   22.77032    3.51864   44.67182
    1392      444        4     0.00000   23.19303    3.10013   45.57717
    1393      444        3     0.00000   21.05713    3.50628   42.95495
    1394      444        4     0.00000   20.15809    3.07752   42.53014
    1395      444        3     0.00000   18.36394    3.47631   49.06584
    1396      444        4     0.00000   19.26298    3.04861   49.49302
    1397      444        3     0.00000   21.07527   22.80686   35.90612
    1398      444        4     0.00000   20.17255   23.23482   36.32515
    1399      444        3     0.00000    7.93237   22.80738   49.10291
    1400      444        4     0.00000    7.03333   23.22878   49.53508
    1401      444        3     0.00000    5.22998   22.79792   42.90553
    1402      444        4     0.00000    6.13323   23.21379   42.47494
    1403      444        3     0.00000   18.34002   22.83262   29.78261
    1404      444        4     0.00000   19.23880   23.26374   29.35912
    1405      444        3     0.00000   21.09183   16.67862   49.08818
    1406      444        4     0.00000   20.19147   16.25249   49.51510
    1407      444        3     0.00000    7.94525   16.62368   35.93766
    1408      444        4     0.00000    7.04358   16.19808   36.36037
    1409      444        3     0.00000    5.19265    9.68473   49.09318
    1410      444        4     0.00000    6.08749   10.11690   49.52325
    1411      444        3     0.00000    7.92712    9.64582   42.93603
    1412      444        4     0.00000    7.01571   10.06432   42.52725
    1413      444        3     0.00000    5.20947   16.62815   29.78472
    1414      444        4     0.00000    6.11115   16.20386   29.35990
    1415      444        3     0.00000   18.37629   16.69229   42.94759
    1416      444        4     0.00000   19.28428   16.27720   42.53172
    1417      444        3     0.00000   16.64471    3.48394   31.46294
    1418      444        4     0.00000   16.22463    3.05045   32.36251
    1419      444        3     0.00000   16.65181   16.68440   44.65131
    1420      444        4     0.00000   16.22726   16.26248   45.55325
    1421      444        3     0.00000    9.66133   16.63025   34.22422
    1422      444        4     0.00000   10.08693   16.20859   33.32175
    1423      444        3     0.00000    9.65896   22.79056   31.49632
    1424      444        4     0.00000   10.08299   23.21300   32.39905
    1425      444        3     0.00000   16.65417   22.75533   47.35187
    1426      444        4     0.00000   16.24014   23.17042   46.44099
    1427      444        3     0.00000   16.63919    9.64792   34.21344
    1428      444        4     0.00000   16.22331   10.07563   33.30914
    1429      444        3     0.00000    3.49787    7.95104   49.07977
    1430      444        4     0.00000    3.09041    7.03596   49.49013
    1431      444        3     0.00000    3.48788    5.22025   42.92919
    1432      444        4     0.00000    3.07411    6.12482   42.50017
    1433      444        3     0.00000   22.81106   21.08815   42.89817
    1434      444        4     0.00000   23.22983   20.18227   42.47757
    1435      444        3     0.00000   22.79976    7.93106   29.78840
    1436      444        4     0.00000   23.22851    7.03017   29.36621
    1437      444        3     0.00000   22.82368    5.21026   35.95212
    1438      444        4     0.00000   23.25927    6.10668   36.37430
    1439      444        3     0.00000   22.82000   18.38050   49.09975
    1440      444        4     0.00000   23.25506   19.27140   49.53376
    1441       65        5     0.00000   14.15814   18.83160   39.56960
    1442       65        6     0.00000   14.99252   18.54795   39.11824
    1443       65        6     0.00000   13.85793   19.62602   39.05988
    1444       66        5     0.00000    5.77125   11.11531   39.12980
    1445       66        6     0.00000    5.08697   10.61558   38.61745
    1446       66        6     0.00000    6.41004   11.43497   38.44421
    1447       67        5     0.00000   12.57324   11.97624   37.08513
    1448       67        6     0.00000   12.36083   12.04985   38.04937
    1449       67        6     0.00000   12.71940   11.00806   36.93608
    1450       68        5     0.00000   23.10496   17.27799   35.33882
    1451       68        6     0.00000   22.53004   17.72987   34.67111
    1452       68        6     0.00000   23.15438   16.33898   35.02889
    1453       69        5     0.00000   22.78215    3.29677   49.87892
    1454       69        6     0.00000   22.14493    4.05070   49.80427
    1455       69        6     0.00000   22.50034    2.81307   50.69569
    1456       70        5     0.00000   19.38181   20.53164   44.70021
    1457       70        6     0.00000   20.23064   20.07134   44.91997
    1458       70        6     0.00000   18.67466   19.90914   45.00515
    1459       71        5     0.00000   25.54185   17.00433   52.43858
    1460       71        6     0.00000   24.58628   17.22068   52.58342
    1461       71        6     0.00000   25.60862   16.81032   51.46987
    1462       72        5     0.00000   24.45143   12.63134   33.17244
    1463       72        6     0.00000   24.78528   13.50041   32.83464
    1464       72        6     0.00000   25.26819   12.12950   33.42007
    1465       73        5     0.00000    5.12062    8.10114   44.33402
    1466       73        6     0.00000    4.87719    9.02017   44.61109
    1467       73        6     0.00000    5.60011    7.72575   45.11451
    1468       74        5     0.00000   25.79158    2.13326   28.68246
    1469       74        6     0.00000   26.56760    2.27469   29.28104
    1470       74        6     0.00000   25.00190    2.30519   29.25502
    1471       75        5     0.00000    3.83435   10.61427   41.91895
    1472       75        6     0.00000    4.36405    9.80696   41.69866
    1473       75        6     0.00000    2.96370   10.46942   41.47048
    1474       76        5     0.00000   20.47538    1.51392   27.51765
    1475       76        6     0.00000   21.15598    2.22632   27.41539
    1476       76        6     0.00000   19.67938    1.86171   27.04263
    1477       77        5     0.00000   13.46519    2.62458   26.52370
    1478       77        6     0.00000   12.93023    3.43898   26.70062
    1479       77        6     0.00000   14.40235    2.94372   26.49873
    1480       78        5     0.00000   12.21993   22.49692   38.07119
    1481       78        6     0.00000   13.01172   22.39519   37.48523
    1482       78        6     0.00000   11.50280   22.81474   37.46683
    1483       79        5     0.00000    5.64901   11.85847   26.55919
    1484       79        6     0.00000    5.28965   12.45994   25.85941
    1485       79        6     0.00000    5.05911   11.06353   26.53106
    1486       80        5     0.00000   19.95988   19.52954   33.65535
    1487       80        6     0.00000   20.53164   19.43044   34.45765
    1488       80        6     0.00000   19.03428   19.49484   34.00550
    1489       81        5     0.00000   12.58796   23.91752   43.65053
    1490       81        6     0.00000   12.74043   24.85994   43.38765
    1491       81        6     0.00000   12.98859   23.84339   44.55300
    1492       82        5     0.00000   21.58736    8.76176   35.30334
    1493       82        6     0.00000   22.47694    8.40713   35.55491
    1494       82        6     0.00000   21.03663    7.95603   35.13641
    1495       83        5     0.00000   16.35344   25.70063   28.04919
    1496       83        6     0.00000   15.50671   25.66435   28.56128
    1497       83        6     0.00000   17.04192   25.93065   28.72295
    1498       84        5     0.00000   15.92758   13.45967   48.53640
    1499       84        6     0.00000   15.92206   12.50568   48.27089
    1500       84        6     0.00000   14.97359   13.72544   48.52720
    1501       85        5     0.00000    9.98914   17.30927   29.67746
    1502       85        6     0.00000   10.23572   17.56268   28.75239
    1503       85        6     0.00000    9.07695   17.67493   29.79996
    1504       86        5     0.00000   16.20202   10.15475   39.81224
    1505       86        6     0.00000   15.75118    9.33142   40.12664
    1506       86        6     0.00000   16.98119    9.82905   39.29568
    1507       87        5     0.00000    3.31674    1.81755   27.83941
    1508       87        6     0.00000    2.60487    1.14668   27.68458
    1509       87        6     0.00000    3.81253    1.47607   28.62568
    1510       88        5     0.00000   11.02515    8.46786   50.75116
    1511       88        6     0.00000   11.81273    7.87664   50.64653
    1512       88        6     0.00000   10.94181    8.59982   51.72907
    1513       89        5     0.00000   15.17048   25.29895   48.91705
    1514       89        6     0.00000   15.38263   25.48191   47.96727
    1515       89        6     0.00000   15.39945   26.13911   49.38787
    1516       90        5     0.00000   10.64239    4.43924   41.82405
    1517       90        6     0.00000   11.46389    4.94949   41.61112
    1518       90        6     0.00000   10.79802    3.54308   41.43341
    1519       91        5     0.00000   24.76557   22.57447   48.67468
    1520       91        6     0.00000   25.57445   22.95880   48.25249
    1521       91        6     0.00000   24.01295   23.07657   48.27247
    1522       92        5     0.00000   11.51673    3.47579   35.88824
    1523       92        6     0.00000   12.24622    3.75943   35.28204
    1524       92        6     0.00000   11.88055    3.62090   36.79754
    1525       93        5     0.00000   16.95491   13.86503   41.62558
    1526       93        6     0.00000   17.24144   13.39395   42.44786
    1527       93        6     0.00000   17.72172   13.77065   41.00597
    1528       94        5     0.00000    9.23362   15.81848   48.52851
    1529       94        6     0.00000    9.68183   16.58083   48.08267
    1530       94        6     0.00000    9.32905   16.00565   49.49617
    1531       95        5     0.00000    1.46345    7.02912   52.08054
    1532       95        6     0.00000    0.69689    7.63059   52.25588
    1533       95        6     0.00000    1.26550    6.62823   51.19700
    1534       96        5     0.00000   21.43910   21.46092   30.66247
    1535       96        6     0.00000   20.76034   20.77138   30.45217
    1536       96        6     0.00000   21.91649   21.60708   29.80732
    1537       97        5     0.00000    6.92923    5.57119   32.80835
    1538       97        6     0.00000    6.13770    5.42056   32.23212
    1539       97        6     0.00000    7.59773    5.98707   32.20741
    1540       98        5     0.00000   12.06930   10.41816   30.44270
    1541       98        6     0.00000   12.57087   10.77541   29.66721
    1542       98        6     0.00000   12.70284    9.79619   30.88040
    1543       99        5     0.00000    0.39300   24.55211   45.87501
    1544       99        6     0.00000    1.05704   24.38571   46.59031
    1545       99        6     0.00000   -0.01236   25.42382   46.11161
    1546      100        5     0.00000   11.88555   25.10521   28.25266
    1547      100        6     0.00000   11.59717   25.97271   27.87175
    1548      100        6     0.00000   12.81667   24.99243   27.93536
    1549      101        5     0.00000   22.44040    0.53575   38.41135
    1550      101        6     0.00000   22.77189   -0.38985   38.53018
    1551      101        6     0.00000   23.02347    1.08464   38.99389
    1552      102        5     0.00000    3.41822   23.30554   28.33625
    1553      102        6     0.00000    3.00681   22.86075   29.11937
    1554      102        6     0.00000    4.36905   23.03030   28.36570
    1555      103        5     0.00000    3.33830   15.05350   42.01648
    1556      103        6     0.00000    3.27547   16.04114   41.98020
    1557      103        6     0.00000    4.30307   14.87080   42.14345
    1558      104        5     0.00000   25.01294   23.81657   51.71592
    1559      104        6     0.00000   24.75216   22.86942   51.84105
    1560      104        6     0.00000   25.73612   23.78845   51.04032
    1561      105        5     0.00000   25.56840   10.63162   50.56688
    1562      105        6     0.00000   24.71431   10.55932   51.06241
    1563      105        6     0.00000   25.56709    9.85349   49.95463
    1564      106        5     0.00000   24.18198    8.80934   39.89583
    1565      106        6     0.00000   24.60127    9.37663   40.59062
    1566      106        6     0.00000   23.22247    9.05276   39.92238
    1567      107        5     0.00000    0.38485   12.62082   44.13160
    1568      107        6     0.00000   -0.29758   12.43812   43.43786
    1569      107        6     0.00000   -0.12907   12.68181   44.97571
    1570      108        5     0.00000    2.97185   14.45125   26.62123
    1571      108        6     0.00000    2.24630   13.91655   27.03185
    1572      108        6     0.00000    3.72578   14.37764   27.25924
    1573      109        5     0.00000   26.36519   16.26459   29.66432
    1574      109        6     0.00000   25.66461   15.89288   30.25685
    1575      109        6     0.00000   25.96009   17.08372   29.28288
    1576      110        5     0.00000   17.96541   25.96298   40.39662
    1577      110        6     0.00000   18.07030   26.01135   41.38005
    1578      110        6     0.00000   17.09187   25.51661   40.26150
    1579      111        5     0.00000   16.65154    3.30202   43.71625
    1580      111        6     0.00000   16.29561    4.22184   43.62792
    1581      111        6     0.00000   16.90759    3.04388   42.79539
    1582      112        5     0.00000   24.90358   16.55665   40.65029
    1583      112        6     0.00000   25.48980   15.79692   40.40477
    1584      112        6     0.00000   24.16016   16.51800   39.99730
    1585      113        5     0.00000    8.12322   20.49352   45.22045
    1586      113        6     0.00000    8.52806   19.84947   45.85451
    1587      113        6     0.00000    8.89635   20.90887   44.76198
    1588      114        5     0.00000   15.52826    0.50525   34.94451
    1589      114        6     0.00000   14.61949    0.21793   35.21264
    1590      114        6     0.00000   15.70755    0.00973   34.10618
    1591      115        5     0.00000    8.73231   21.26717   34.34961
    1592      115        6     0.00000    8.08458   21.55266   35.04177
    1593      115        6     0.00000    8.34772   20.43437   33.97685
    1594      116        5     0.00000   23.35917   26.04474   26.89620
    1595      116        6     0.00000   22.58630   26.22428   26.30367
    1596      116        6     0.00000   23.19434   26.60230   27.69746
    1597      117        5     0.00000   19.83816    8.10640   45.75383
    1598      117        6     0.00000   19.45278    8.26702   46.65130
    1599      117        6     0.00000   20.24563    8.97048   45.49726
    1600      118        5     0.00000    1.41376   13.19285   38.97260
    1601      118        6     0.00000    1.51024   12.38660   38.40583
    1602      118        6     0.00000    1.47501   13.95073   38.33827
    1603      119        5     0.00000   18.17493   13.50199   28.68378
    1604      119        6     0.00000   19.10210   13.23412   28.46270
    1605      119        6     0.00000   17.92230   14.13711   27.96743
    1606      120        5     0.00000   13.24884   11.08850   42.21390
    1607      120        6     0.00000   13.29668   10.31826   41.59350
    1608      120        6     0.00000   14.10714   11.06405   42.70680
    1609      121        5     0.00000    5.39401    1.13432   50.78191
    1610      121        6     0.00000    5.22998    1.98395   51.26351
    1611      121        6     0.00000    5.97498    0.61251   51.39048
    1612      122        5     0.00000   23.81079   12.63712   40.05408
    1613      122        6     0.00000   24.62677   12.15368   39.76912
    1614      122        6     0.00000   24.00611   13.58848   39.86192
    1615      123        5     0.00000   25.83338    1.33989   36.70395
    1616      123        6     0.00000   25.39832    1.06913   35.85670
    1617      123        6     0.00000   25.36703    0.81414   37.40137
    1618      124        5     0.00000   19.22014    5.22787   45.69862
    1619      124        6     0.00000   18.94911    5.49654   46.61318
    1620      124        6     0.00000   18.39391    5.31936   45.16025
    1621      125        5     0.00000   12.96808    9.93315   48.44387
    1622      125        6     0.00000   12.45337   10.35586   47.71122
    1623      125        6     0.00000   13.91524   10.04198   48.17652
    1624      126        5     0.00000   13.02381    7.76702   39.13506
    1625      126        6     0.00000   12.78328    8.72390   39.21760
    1626      126        6     0.00000   12.37661    7.40372   38.47918
    1627      127        5     0.00000   17.99670    8.32380   30.26316
    1628      127        6     0.00000   17.67704    7.88216   31.08938
    1629      127        6     0.00000   17.64365    9.24703   30.32125
    1630      128        5     0.00000    2.22527   13.21940   47.99776
    1631      128        6     0.00000    2.41402   13.92102   48.67047
    1632      128        6     0.00000    1.55072   13.62633   47.39787
    1633      444        1     0.00000    8.28516   32.72922   24.94932
    1634      444        1     0.00000    8.27964   45.84741   11.82035
    1635      444        1     0.00000   21.45382   32.75446   11.83297
    1636      444        1     0.00000   21.45040   45.89289   24.98744
    1637      444        1     0.00000   17.99223   46.12449   24.97719
    1638      444        1     0.00000   17.97987   32.98159   11.82719
    1639      444        1     0.00000    4.87772   46.15656   11.81352
    1640      444        1     0.00000    4.87194   33.01471   24.95353
    1641      444        1     0.00000   17.98382   32.74289    1.29520
    1642      444        1     0.00000   18.00537   45.89289   14.45808
    1643      444        1     0.00000    4.87299   32.70320   14.46702
    1644      444        1     0.00000    4.86615   45.85293    1.32333
    1645      444        1     0.00000    8.27937   46.14473    1.32070
    1646      444        1     0.00000    8.26045   33.01077   14.46571
    1647      444        1     0.00000   21.43752   46.15656   14.44073
    1648      444        1     0.00000   21.44146   32.99184    1.31071
    1649      444        1     0.00000   24.97324   34.57437    6.43502
    1650      444        1     0.00000   24.98533   47.70991   19.54006
    1651      444        1     0.00000   11.84349   34.55544   19.53296
    1652      444        1     0.00000   11.82798   47.70754    6.42739
    1653      444        1     0.00000   24.98165   44.33007   19.87365
    1654      444        1     0.00000   24.97377   31.14354    6.71051
    1655      444        1     0.00000   11.83192   44.29879    6.71814
    1656      444        1     0.00000   11.85085   31.19033   19.86182
    1657      444        1     0.00000    1.32254   44.29537    6.43580
    1658      444        1     0.00000    1.30230   31.19007   19.56871
    1659      444        1     0.00000   14.45098   44.32271   19.55084
    1660      444        1     0.00000   14.46124   31.12566    6.41214
    1661      444        1     0.00000    1.31387   34.58646   19.86971
    1662      444        1     0.00000    1.32544   47.71858    6.70473
    1663      444        1     0.00000   14.46702   34.56911    6.68054
    1664      444        1     0.00000   14.44993   47.70123   19.87628
    1665      444        1     0.00000    6.42949   51.26824    8.26860
    1666      444        1     0.00000    6.41688   38.12823   21.41780
    1667      444        1     0.00000   19.58895   51.22171   21.41360
    1668      444        1     0.00000   19.57555   38.10641    8.29620
    1669      444        1     0.00000   19.86892   51.25352   17.99223
    1670      444        1     0.00000   19.84815   38.10563    4.86405
    1671      444        1     0.00000    6.72813   51.25562    4.86904
    1672      444        1     0.00000    6.72550   38.10431   18.02351
    1673      444        1     0.00000    6.38796   27.61991   18.04691
    1674      444        1     0.00000    6.43239   40.74309    4.87141
    1675      444        1     0.00000   19.61156   27.63305    4.83408
    1676      444        1     0.00000   19.58948   40.80487   18.02640
    1677      444        1     0.00000   19.83790   27.62490    8.30540
    1678      444        1     0.00000   19.85499   40.80539   21.41912
    1679      444        1     0.00000    6.76151   27.62858   21.38600
    1680      444        1     0.00000    6.73154   40.73573    8.27780
    1681      444        1     0.00000    6.44027   34.56833    1.30809
    1682      444        1     0.00000    6.42713   47.70465   14.44888
    1683      444        1     0.00000   19.60236   34.61906   14.46334
    1684      444        1     0.00000   19.59106   47.74172    1.32912
    1685      444        1     0.00000   19.83711   44.28144    1.33569
    1686      444        1     0.00000   19.82712   31.15116   14.48200
    1687      444        1     0.00000    6.72418   44.30668   14.45835
    1688      444        1     0.00000    6.71682   31.14459    1.29047
    1689      444        1     0.00000    6.42371   44.30063   24.96746
    1690      444        1     0.00000    6.40636   31.15668   11.83718
    1691      444        1     0.00000   19.57897   44.29643   11.82167
    1692      444        1     0.00000   19.60420   31.14853   24.94327
    1693      444        1     0.00000   19.84132   34.60303   24.95984
    1694      444        1     0.00000   19.84316   47.73225   11.80195
    1695      444        1     0.00000    6.73259   34.54177   11.82377
    1696      444        1     0.00000    6.71682   47.70833   24.97456
    1697      444        1     0.00000    8.25650   51.28138   19.89784
    1698      444        1     0.00000    8.28673   38.09642    6.71840
    1699      444        1     0.00000   21.44593   51.27008    6.68028
    1700      444        1     0.00000   21.43331   38.15978   19.87181
    1701      444        1     0.00000   17.98382   51.28322    6.44290
    1702      444        1     0.00000   18.00458   38.16083   19.57160
    1703      444        1     0.00000    4.91373   51.27008   19.53927
    1704      444        1     0.00000    4.87693   38.09958    6.42266
    1705      444        1     0.00000   18.00195   27.57522   19.85972
    1706      444        1     0.00000   18.00511   40.75045    6.71183
    1707      444        1     0.00000    4.88455   27.61807    6.71288
    1708      444        1     0.00000    4.88745   40.76149   19.85446
    1709      444        1     0.00000    8.28227   27.61123    6.40531
    1710      444        1     0.00000    8.28095   40.73915   19.54453
    1711      444        1     0.00000   21.42254   27.60440   19.58685
    1712      444        1     0.00000   21.43621   40.74493    6.44684
    1713      444        1     0.00000   24.95274   32.73369   18.02404
    1714      444        1     0.00000   24.96956   45.86581    4.85774
    1715      444        1     0.00000   11.81930   32.72686    4.83145
    1716      444        1     0.00000   11.81168   45.84978   18.02482
    1717      444        1     0.00000   24.97061   46.15183    8.28043
    1718      444        1     0.00000   24.96457   33.04547   21.42727
    1719      444        1     0.00000   11.80958   46.17023   21.40045
    1720      444        1     0.00000   11.83140   32.97160    8.27596
    1721      444        1     0.00000    1.32964   32.72370    8.27254
    1722      444        1     0.00000    1.33253   45.85819   21.39546
    1723      444        1     0.00000   14.48884   32.70688   21.38047
    1724      444        1     0.00000   14.46676   45.86213    8.28174
    1725      444        1     0.00000    1.33122   46.18337   18.01773
    1726      444        1     0.00000    1.32281   32.99473    4.84854
    1727      444        1     0.00000   14.47017   46.15393    4.86668
    1728      444        1     0.00000   14.48463   33.04862   18.00905
    1729      444        1     0.00000   18.02877   46.17785    1.32885
    1730      444        1     0.00000   18.03481   33.05887   14.46728
    1731      444        1     0.00000    4.85984   46.14604   14.45388
    1732      444        1     0.00000    4.87588   33.00604    1.30204
    1733      444        1     0.00000    8.28043   32.70793    1.29573
    1734      444        1     0.00000    8.28989   45.86713   14.45861
    1735      444        1     0.00000   21.39704   32.71109   14.47464
    1736      444        1     0.00000   21.39835   45.84741    1.33595
    1737      444        1     0.00000    8.28043   46.14578   24.96825
    1738      444        1     0.00000    8.28989   32.97318   11.82798
    1739      444        1     0.00000   21.40492   46.16812   11.80432
    1740      444        1     0.00000   21.41071   33.04389   24.96036
    1741      444        1     0.00000   18.03560   32.70530   24.94301
    1742      444        1     0.00000   18.01378   45.85793   11.81957
    1743      444        1     0.00000    4.84828   32.72633   11.82693
    1744      444        1     0.00000    4.85958   45.86292   24.96982
    1745      444        1     0.00000    1.33201   44.29537   19.83396
    1746      444        1     0.00000    1.32596   31.15694    6.71209
    1747      444        1     0.00000   14.46939   44.30116    6.71630
    1748      444        1     0.00000   14.49120   31.14853   19.81319
    1749      444        1     0.00000    1.32491   34.56018    6.40899
    1750      444        1     0.00000    1.33621   47.74514   19.58081
    1751      444        1     0.00000   14.48016   34.60513   19.57923
    1752      444        1     0.00000   14.46623   47.71569    6.43186
    1753      444        1     0.00000   24.96089   34.60408   19.85841
    1754      444        1     0.00000   24.97324   47.71017    6.71235
    1755      444        1     0.00000   11.82929   34.54099    6.72024
    1756      444        1     0.00000   11.80826   47.73672   19.84000
    1757      444        1     0.00000   24.97009   44.30668    6.42555
    1758      444        1     0.00000   24.95326   31.17824   19.59500
    1759      444        1     0.00000   11.81352   44.28460   19.58738
    1760      444        1     0.00000   11.82535   31.15773    6.38796
    1761      444        1     0.00000   19.85946   27.60492   18.02325
    1762      444        1     0.00000   19.87365   40.74467    4.88324
    1763      444        1     0.00000    6.71656   27.60598    4.84407
    1764      444        1     0.00000    6.71524   40.74046   17.98382
    1765      444        1     0.00000    6.44921   27.62201    8.27464
    1766      444        1     0.00000    6.45105   40.76517   21.41649
    1767      444        1     0.00000   19.56398   27.57522   21.42464
    1768      444        1     0.00000   19.56556   40.74835    8.27806
    1769      444        1     0.00000   19.88338   51.27402    8.24573
    1770      444        1     0.00000   19.87286   38.16582   21.43936
    1771      444        1     0.00000    6.69737   51.27823   21.45540
    1772      444        1     0.00000    6.72366   38.09353    8.28095
    1773      444        1     0.00000    6.47602   51.26982   17.97935
    1774      444        1     0.00000    6.44027   38.10300    4.85984
    1775      444        1     0.00000   19.54584   51.28428    4.87903
    1776      444        1     0.00000   19.56687   38.16740   18.00458
    1777      444        1     0.00000   19.89232   44.32403   24.98533
    1778      444        1     0.00000   19.89074   31.19007   11.84138
    1779      444        1     0.00000    6.71340   44.28775   11.81878
    1780      444        1     0.00000    6.72392   31.16325   24.94143
    1781      444        1     0.00000    6.43370   34.57963   24.96036
    1782      444        1     0.00000    6.44579   47.71464   11.81089
    1783      444        1     0.00000   19.54374   34.54756   11.82193
    1784      444        1     0.00000   19.55084   47.69309   24.97955
    1785      444        1     0.00000   19.87733   34.55360    1.31150
    1786      444        1     0.00000   19.87681   47.72253   14.44257
    1787      444        1     0.00000    6.70026   34.57779   14.46334
    1788      444        1     0.00000    6.71551   47.70623    1.32570
    1789      444        1     0.00000    6.43055   44.29091    1.31992
    1790      444        1     0.00000    6.43291   31.13697   14.47622
    1791      444        1     0.00000   19.56766   44.32902   14.45913
    1792      444        1     0.00000   19.55031   31.18297    1.29284
    1793      444        1     0.00000   18.04480   27.63226    6.39506
    1794      444        1     0.00000   18.02167   40.80040   19.58396
    1795      444        1     0.00000    4.83513   27.62070   19.61051
    1796      444        1     0.00000    4.86983   40.74046    6.43475
    1797      444        1     0.00000    8.31618   27.63069   19.81871
    1798      444        1     0.00000    8.29357   40.73836    6.71393
    1799      444        1     0.00000   21.40440   27.62096    6.74600
    1800      444        1     0.00000   21.42201   40.79777   19.85919
    1801      444        1     0.00000    8.29357   51.25825    6.43002
    1802      444        1     0.00000    8.28831   38.10221   19.58580
    1803      444        1     0.00000   21.43174   51.25063   19.55636
    1804      444        1     0.00000   21.41018   38.10273    6.42844
    1805      444        1     0.00000   18.02745   51.22329   19.84868
    1806      444        1     0.00000   18.01562   38.11220    6.72970
    1807      444        1     0.00000    4.86536   51.26666    6.70552
    1808      444        1     0.00000    4.85459   38.12587   19.85367
    1809      444        1     0.00000    1.32333   46.15998    8.27333
    1810      444        1     0.00000    1.31255   33.02286   21.43331
    1811      444        1     0.00000   14.44809   46.13342   21.43568
    1812      444        1     0.00000   14.46702   33.00130    8.23863
    1813      444        1     0.00000    1.30809   32.74947   18.00143
    1814      444        1     0.00000    1.32307   45.85346    4.86799
    1815      444        1     0.00000   14.45650   32.69295    4.85353
    1816      444        1     0.00000   14.45151   45.88842   17.99012
    1817      444        1     0.00000   24.97929   46.14263   17.98382
    1818      444        1     0.00000   24.97061   33.00919    4.87325
    1819      444        1     0.00000   11.83192   46.14578    4.86274
    1820      444        1     0.00000   11.84428   32.99789   17.96541
    1821      444        1     0.00000   24.98034   32.70925    8.27070
    1822      444        1     0.00000   24.98428   45.89788   21.43095
    1823      444        1     0.00000   11.85111   32.75157   21.42806
    1824      444        1     0.00000   11.82824   45.86056    8.28332
    1825      444        2     0.00000    7.33170   33.61749   -0.01551
    1826      444        2     0.00000    7.33143   46.75434   13.13475
    1827      444        2     0.00000   20.47302   33.63221   13.14842
    1828      444        2     0.00000   20.46697   46.76276    0.01367
    1829      444        2     0.00000   18.96278   45.25199    0.01236
    1830      444        2     0.00000   18.96488   32.12697   13.15447
    1831      444        2     0.00000    5.81935   45.24936   13.13633
    1832      444        2     0.00000    5.82303   32.10830   -0.02182
    1833      444        2     0.00000   18.96041   33.62564   -0.01682
    1834      444        2     0.00000   18.95752   46.77800   13.13107
    1835      444        2     0.00000    5.81515   33.61066   13.14526
    1836      444        2     0.00000    5.81672   46.75618    0.00447
    1837      444        2     0.00000    7.32565   45.24831    0.00000
    1838      444        2     0.00000    7.31934   32.09805   13.15131
    1839      444        2     0.00000   20.46592   45.26908   13.13159
    1840      444        2     0.00000   20.47197   32.12092   -0.01682
    1841      444        2     0.00000    0.00815   33.61407    7.31960
    1842      444        2     0.00000    0.01551   46.77091   20.45540
    1843      444        2     0.00000   13.16577   33.62249   20.44778
    1844      444        2     0.00000   13.14737   46.75987    7.32933
    1845      444        2     0.00000    0.01183   45.26040   18.95016
    1846      444        2     0.00000    0.00447   32.10305    5.81304
    1847      444        2     0.00000   13.15078   45.25304    5.81935
    1848      444        2     0.00000   13.16761   32.11987   18.93596
    1849      444        2     0.00000    0.00237   45.25620    7.32591
    1850      444        2     0.00000   -0.01025   32.14222   20.47249
    1851      444        2     0.00000   13.13107   45.25856   20.46276
    1852      444        2     0.00000   13.14632   32.09253    7.30041
    1853      444        2     0.00000   -0.01025   33.64720   18.96067
    1854      444        2     0.00000    0.00342   46.76013    5.81304
    1855      444        2     0.00000   13.14316   33.60593    5.79753
    1856      444        2     0.00000   13.13081   46.76933   18.95673
    1857      444        2     0.00000    7.33800   26.29605    7.31908
    1858      444        2     0.00000    7.33432   39.43369   20.46644
    1859      444        2     0.00000   20.47696   26.26976   20.47039
    1860      444        2     0.00000   20.47328   39.42580    7.33879
    1861      444        2     0.00000   18.96935   26.27081   18.96094
    1862      444        2     0.00000   18.96646   39.42817    5.82855
    1863      444        2     0.00000    5.82829   26.29263    5.81225
    1864      444        2     0.00000    5.82461   39.43316   18.95778
    1865      444        2     0.00000    7.33248   26.30630   18.96225
    1866      444        2     0.00000    7.33459   39.42028    5.81909
    1867      444        2     0.00000   20.47407   26.30814    5.81252
    1868      444        2     0.00000   20.49562   39.46786   18.94884
    1869      444        2     0.00000   18.96593   26.30946    7.31803
    1870      444        2     0.00000   18.94622   39.46708   20.49457
    1871      444        2     0.00000    5.82592   26.30525   20.47407
    1872      444        2     0.00000    5.82645   39.41739    7.32775
    1873      444        3     0.00000    8.51281   30.95164   23.35154
    1874      444        3     0.00000    7.81776   31.63591   24.47325
    1875      444        3     0.00000    8.50072   44.06772   10.22704
    1876      444        3     0.00000    7.80882   44.75515   11.34822
    1877      444        3     0.00000   17.78455   47.90497   23.37441
    1878      444        3     0.00000   18.46226   47.21833   24.50374
    1879      444        3     0.00000   17.77062   34.76838   10.22336
    1880      444        3     0.00000   18.45095   34.07438   11.35033
    1881      444        3     0.00000    4.64612   34.80649   23.37283
    1882      444        3     0.00000    5.33960   34.11197   24.48849
    1883      444        3     0.00000   17.77824   30.95032    2.88667
    1884      444        3     0.00000   18.45621   31.64905    1.76497
    1885      444        3     0.00000   17.80190   44.12030   16.06690
    1886      444        3     0.00000   18.47908   44.80273   14.93494
    1887      444        3     0.00000    4.64218   30.93560   16.07321
    1888      444        3     0.00000    5.33986   31.61173   14.94599
    1889      444        3     0.00000    8.50019   47.92468    2.91796
    1890      444        3     0.00000    7.80987   47.23673    1.79546
    1891      444        3     0.00000    8.48994   34.79098   16.05297
    1892      444        3     0.00000    7.79357   34.10645   14.93416
    1893      444        3     0.00000   23.36889   34.78126    4.65795
    1894      444        3     0.00000   24.49717   34.10093    5.34486
    1895      444        3     0.00000   10.24019   34.78336   17.76589
    1896      444        3     0.00000   11.37004   34.08910   18.44017
    1897      444        3     0.00000   23.38624   44.11662   21.64940
    1898      444        3     0.00000   24.51058   44.80378   20.96486
    1899      444        3     0.00000   23.38624   30.93113    8.50545
    1900      444        3     0.00000   24.50663   31.61488    7.80567
    1901      444        3     0.00000   10.23467   44.07429    8.49783
    1902      444        3     0.00000   11.35769   44.76698    7.81145
    1903      444        3     0.00000    2.91927   44.07272    4.65348
    1904      444        3     0.00000    1.79573   44.76198    5.34144
    1905      444        3     0.00000   16.06217   44.11530   17.78876
    1906      444        3     0.00000   14.92732   44.79721   18.46252
    1907      444        3     0.00000   16.05192   30.92035    4.62089
    1908      444        3     0.00000   14.92969   31.59884    5.31831
    1909      444        3     0.00000    2.90981   34.80413   21.64703
    1910      444        3     0.00000    1.78600   34.11539   20.96171
    1911      444        3     0.00000   16.05796   34.77837    8.47312
    1912      444        3     0.00000   14.93889   34.09541    7.77333
    1913      444        3     0.00000    4.65112   49.67230    8.48941
    1914      444        3     0.00000    5.33618   50.79585    7.79936
    1915      444        3     0.00000    4.63114   36.54518   21.64809
    1916      444        3     0.00000    5.32146   37.66005   20.95146
    1917      444        3     0.00000   21.65992   49.66836   17.76536
    1918      444        3     0.00000   20.96513   50.78428   18.45936
    1919      444        3     0.00000   21.63074   36.50574    4.65059
    1920      444        3     0.00000   20.93989   37.63060    5.33513
    1921      444        3     0.00000    8.50361   49.65548    4.65164
    1922      444        3     0.00000    7.82039   50.78244    5.33934
    1923      444        3     0.00000    4.61694   29.21322   17.81610
    1924      444        3     0.00000    5.29727   28.09178   18.51615
    1925      444        3     0.00000    4.65033   42.33955    4.65322
    1926      444        3     0.00000    5.33907   41.21496    5.34170
    1927      444        3     0.00000   21.63915   29.21243    8.52385
    1928      444        3     0.00000   20.93595   28.09309    7.83905
    1929      444        3     0.00000   21.64257   42.39581   21.63757
    1930      444        3     0.00000   20.94935   41.27437   20.94856
    1931      444        3     0.00000    8.50755   42.33719    8.49493
    1932      444        3     0.00000    7.82328   41.21049    7.80698
    1933      444        3     0.00000    4.65900   34.78021    2.90376
    1934      444        3     0.00000    5.34696   34.09646    1.77864
    1935      444        3     0.00000    4.65480   47.93520   16.04745
    1936      444        3     0.00000    5.33381   47.23909   14.92338
    1937      444        3     0.00000   21.62600   44.07298    2.93031
    1938      444        3     0.00000   20.93016   44.75436    1.80782
    1939      444        3     0.00000   21.61128   30.94822   16.08662
    1940      444        3     0.00000   20.92149   31.62303   14.95466
    1941      444        3     0.00000    8.49835   30.92535    2.88378
    1942      444        3     0.00000    7.80987   31.61330    1.76339
    1943      444        3     0.00000    4.64954   44.08691   23.36311
    1944      444        3     0.00000    5.33145   44.77197   24.49349
    1945      444        3     0.00000    4.64218   30.94296   10.22836
    1946      444        3     0.00000    5.31831   31.63092   11.35769
    1947      444        3     0.00000   21.63389   34.82490   23.37178
    1948      444        3     0.00000   20.93936   34.13668   24.49060
    1949      444        3     0.00000   21.62732   47.94045   10.20260
    1950      444        3     0.00000   20.93516   47.25934   11.32877
    1951      444        3     0.00000    8.50992   34.75760   10.22915
    1952      444        3     0.00000    7.82354   34.06780   11.35296
    1953      444        3     0.00000    8.48442   49.68019   21.66202
    1954      444        3     0.00000    7.78937   50.80636   20.98773
    1955      444        3     0.00000    8.50571   36.49181    8.49678
    1956      444        3     0.00000    7.81671   37.62009    7.81014
    1957      444        3     0.00000   17.77272   49.69044    4.65138
    1958      444        3     0.00000   18.45305   50.81293    5.34722
    1959      444        3     0.00000   17.79191   36.57409   17.78587
    1960      444        3     0.00000   18.47461   37.69501   18.47566
    1961      444        3     0.00000    4.65690   36.50890    4.63719
    1962      444        3     0.00000    5.34643   37.63008    5.32829
    1963      444        3     0.00000   17.79454   29.17983   21.63152
    1964      444        3     0.00000   18.47303   28.04840   20.95172
    1965      444        3     0.00000   17.79191   42.34954    8.49283
    1966      444        3     0.00000   18.47540   41.22363    7.80488
    1967      444        3     0.00000    4.66374   29.21926    8.48810
    1968      444        3     0.00000    5.35616   28.09414    7.80356
    1969      444        3     0.00000    8.49888   29.20086    4.61984
    1970      444        3     0.00000    7.81066   28.07968    5.31121
    1971      444        3     0.00000    8.50256   42.33325   17.76747
    1972      444        3     0.00000    7.81119   41.20970   18.45121
    1973      444        3     0.00000   23.34655   30.95926   17.81978
    1974      444        3     0.00000   24.47745   31.64537   18.50116
    1975      444        3     0.00000   10.22836   30.93639    4.61379
    1976      444        3     0.00000   11.35006   31.63013    5.29859
    1977      444        3     0.00000   23.36968   47.93073    8.48258
    1978      444        3     0.00000   24.49796   47.24199    7.80461
    1979      444        3     0.00000   10.21627   47.94782   21.63415
    1980      444        3     0.00000   11.33718   47.26433   20.93411
    1981      444        3     0.00000   10.24045   34.76049    8.50124
    1982      444        3     0.00000   11.36032   34.06833    7.81224
    1983      444        3     0.00000    2.92295   30.94191    8.48915
    1984      444        3     0.00000    1.80020   31.62934    7.80277
    1985      444        3     0.00000   16.08530   30.93061   21.60497
    1986      444        3     0.00000   14.96307   31.61646   20.90887
    1987      444        3     0.00000    2.93452   47.95465   17.79112
    1988      444        3     0.00000    1.80729   47.27511   18.48670
    1989      444        3     0.00000    2.92374   34.77653    4.63167
    1990      444        3     0.00000    1.79730   34.08831    5.31699
    1991      444        3     0.00000   16.05770   47.94440    4.64770
    1992      444        3     0.00000   14.93889   47.24856    5.33723
    1993      444        3     0.00000   17.79507   47.95912    2.91822
    1994      444        3     0.00000   18.49485   47.27222    1.79914
    1995      444        3     0.00000   17.81557   34.83357   16.06532
    1996      444        3     0.00000   18.50878   34.15114   14.93889
    1997      444        3     0.00000    8.50177   44.08139   16.05455
    1998      444        3     0.00000    7.81723   44.77487   14.93179
    1999      444        3     0.00000    8.49415   47.93441   23.37757
    2000      444        3     0.00000    7.80935   47.24014   24.49953
    2001      444        3     0.00000   17.81978   30.93166   23.34076
    2002      444        3     0.00000   18.51036   31.61646   24.46773
    2003      444        3     0.00000   17.79349   44.07561   10.22915
    2004      444        3     0.00000   18.48407   44.76382   11.35033
    2005      444        3     0.00000    2.92663   44.08087   21.62259
    2006      444        3     0.00000    1.80388   44.76461   20.92753
    2007      444        3     0.00000   16.06138   44.08008    8.49914
    2008      444        3     0.00000   14.93968   44.76987    7.81092
    2009      444        3     0.00000   16.07742   34.82936   17.79375
    2010      444        3     0.00000   14.95440   34.14062   18.48381
    2011      444        3     0.00000   23.36758   34.82384   21.64546
    2012      444        3     0.00000   24.49112   34.13720   20.95540
    2013      444        3     0.00000   23.36679   44.08586    4.65401
    2014      444        3     0.00000   24.49454   44.77565    5.33381
    2015      444        3     0.00000   10.22626   44.06877   17.79297
    2016      444        3     0.00000   11.34270   44.75489   18.49249
    2017      444        3     0.00000   21.62022   29.22216   17.82214
    2018      444        3     0.00000   20.94620   28.08468   18.50011
    2019      444        3     0.00000   21.64546   42.34350    4.66321
    2020      444        3     0.00000   20.96513   41.21759    5.35379
    2021      444        3     0.00000    4.66637   42.36111   21.62811
    2022      444        3     0.00000    5.35826   41.23730   20.94488
    2023      444        3     0.00000   21.64572   49.66678    8.46444
    2024      444        3     0.00000   20.97196   50.79637    7.77307
    2025      444        3     0.00000   21.64125   36.55543   21.64546
    2026      444        3     0.00000   20.95934   37.68844   20.96434
    2027      444        3     0.00000    4.68582   49.66941   17.77377
    2028      444        3     0.00000    5.38350   50.79506   18.44990
    2029      444        3     0.00000   21.66281   44.11372   23.38466
    2030      444        3     0.00000   20.98248   44.79826   24.51347
    2031      444        3     0.00000   21.66517   30.95374   10.24729
    2032      444        3     0.00000   20.98458   31.65747   11.36715
    2033      444        3     0.00000    4.66032   47.93572   10.21653
    2034      444        3     0.00000    5.35090   47.24751   11.33929
    2035      444        3     0.00000   21.64730   34.77416    2.91664
    2036      444        3     0.00000   20.96854   34.08358    1.78653
    2037      444        3     0.00000   21.66176   47.94151   16.03062
    2038      444        3     0.00000   20.97065   47.25171   14.91155
    2039      444        3     0.00000    4.65059   44.07166    2.92032
    2040      444        3     0.00000    5.33750   44.75988    1.79467
    2041      444        3     0.00000   17.81189   29.21821    4.61616
    2042      444        3     0.00000   18.51509   28.10282    5.30174
    2043      444        3     0.00000   17.81531   42.40370   17.81268
    2044      444        3     0.00000   18.49669   41.27647   18.49774
    2045      444        3     0.00000    8.52990   29.22741   21.61076
    2046      444        3     0.00000    7.85009   28.10334   20.91386
    2047      444        3     0.00000    8.49678   36.50469   17.80138
    2048      444        3     0.00000    7.81539   37.62824   18.49459
    2049      444        3     0.00000   17.80926   49.61999   21.62443
    2050      444        3     0.00000   18.49880   50.74616   20.93963
    2051      444        3     0.00000   17.78771   36.51074    8.50072
    2052      444        3     0.00000   18.48223   37.63639    7.82223
    2053      444        3     0.00000    2.92137   47.93914    8.48889
    2054      444        3     0.00000    1.79678   47.25119    7.80041
    2055      444        3     0.00000   16.05928   47.90497   21.64073
    2056      444        3     0.00000   14.92522   47.22464   20.96434
    2057      444        3     0.00000    2.89877   30.95768   17.79507
    2058      444        3     0.00000    1.77680   31.65589   18.47487
    2059      444        3     0.00000   23.38703   47.93125   17.76589
    2060      444        3     0.00000   24.50926   47.23778   18.45069
    2061      444        3     0.00000   10.23467   47.92468    4.64639
    2062      444        3     0.00000   11.35769   47.23725    5.33355
    2063      444        3     0.00000   10.25438   30.96452   21.63336
    2064      444        3     0.00000   11.37898   31.65904   20.95540
    2065      444        3     0.00000    9.66895   31.51656   22.78583
    2066      444        4     0.00000   10.08693   32.41850   23.21484
    2067      444        3     0.00000    9.65712   44.62923    9.65423
    2068      444        4     0.00000   10.07904   45.53169   10.08010
    2069      444        3     0.00000   16.62552   47.35318   22.80265
    2070      444        4     0.00000   16.19019   46.46150   23.23640
    2071      444        3     0.00000   16.62158   34.21344    9.63294
    2072      444        4     0.00000   16.19308   33.31124   10.05144
    2073      444        3     0.00000    3.50286   47.37710    9.64161
    2074      444        4     0.00000    3.08042   46.47412   10.06485
    2075      444        3     0.00000   16.61448   31.48817    3.46264
    2076      444        4     0.00000   16.17626   32.38354    3.03862
    2077      444        3     0.00000   16.63419   44.66761   16.62867
    2078      444        4     0.00000   16.19335   45.55325   16.18677
    2079      444        3     0.00000    3.49576   44.63133    3.49734
    2080      444        4     0.00000    3.07174   45.53353    3.07384
    2081      444        3     0.00000    9.65949   47.36817    3.48919
    2082      444        4     0.00000   10.08851   46.47201    3.05965
    2083      444        3     0.00000    9.66080   34.23920   16.60607
    2084      444        4     0.00000   10.09508   33.35435   16.16075
    2085      444        3     0.00000   22.78425   35.93214    5.21657
    2086      444        4     0.00000   23.20223   36.35564    6.12166
    2087      444        3     0.00000   22.81238   49.08740   18.32714
    2088      444        4     0.00000   23.23272   49.50721   19.23302
    2089      444        3     0.00000    9.65949   35.92846   18.34527
    2090      444        4     0.00000   10.08746   36.34512   19.24826
    2091      444        3     0.00000   22.80081   42.96889   21.08184
    2092      444        4     0.00000   23.22326   42.54381   20.17964
    2093      444        3     0.00000   22.79818   29.77683    7.95603
    2094      444        4     0.00000   23.21642   29.34623    7.05436
    2095      444        3     0.00000    9.68473   29.81048   21.06265
    2096      444        4     0.00000   10.11322   29.39276   20.15940
    2097      444        3     0.00000    3.49419   42.91579    5.21158
    2098      444        4     0.00000    3.06859   42.49071    6.11220
    2099      444        3     0.00000    3.46133   29.79865   18.36315
    2100      444        4     0.00000    3.02679   29.37909   19.26193
    2101      444        3     0.00000    3.47631   35.96605   21.09157
    2102      444        4     0.00000    3.04782   36.39165   20.19305
    2103      444        3     0.00000    3.49366   49.09739    7.93316
    2104      444        4     0.00000    3.06464   49.52561    7.03543
    2105      444        3     0.00000    5.21552   49.09344    9.64161
    2106      444        4     0.00000    6.11772   49.51773   10.06485
    2107      444        3     0.00000   18.35631   49.05164   22.78951
    2108      444        4     0.00000   19.25746   49.47593   23.21511
    2109      444        3     0.00000   18.33292   35.93056    9.66054
    2110      444        4     0.00000   19.22671   36.35774   10.09823
    2111      444        3     0.00000   21.10629   49.09975   16.60423
    2112      444        4     0.00000   20.20725   49.52877   16.17705
    2113      444        3     0.00000   21.08211   35.93004    3.48946
    2114      444        4     0.00000   20.18464   36.35643    3.05781
    2115      444        3     0.00000    7.94157   49.07925    3.49708
    2116      444        4     0.00000    7.03911   49.50301    3.07463
    2117      444        3     0.00000    5.18687   29.77867   16.65943
    2118      444        4     0.00000    6.08617   29.34518   16.24040
    2119      444        3     0.00000   18.36105   29.80732    3.46501
    2120      444        4     0.00000   19.27560   29.40512    3.04966
    2121      444        3     0.00000   21.09315   29.79917    9.67947
    2122      444        4     0.00000   20.18963   29.38277   10.10875
    2123      444        3     0.00000    7.96234   29.79576   22.76769
    2124      444        4     0.00000    7.06119   29.36621   23.18698
    2125      444        3     0.00000    5.21683   35.93530    3.48131
    2126      444        4     0.00000    6.11851   36.36090    3.05807
    2127      444        3     0.00000   18.36000   35.99681   16.63525
    2128      444        4     0.00000   19.25746   36.42767   16.20886
    2129      444        3     0.00000   21.07738   42.91526    3.50943
    2130      444        4     0.00000   20.17728   42.48598    3.08778
    2131      444        3     0.00000    7.94499   42.91815   16.61632
    2132      444        4     0.00000    7.04595   42.49386   16.18520
    2133      444        3     0.00000    7.93947   29.77210    3.46317
    2134      444        4     0.00000    7.03622   29.34702    3.04204
    2135      444        3     0.00000    5.21736   42.93682   22.78635
    2136      444        4     0.00000    6.11930   42.51437   23.21274
    2137      444        3     0.00000    5.21394   29.79497    9.64766
    2138      444        4     0.00000    6.11746   29.37568   10.07326
    2139      444        3     0.00000   18.35369   42.92367    9.64819
    2140      444        4     0.00000   19.25773   42.50096   10.06879
    2141      444        3     0.00000   21.07212   35.97447   22.79187
    2142      444        4     0.00000   20.16045   36.38981   23.20486
    2143      444        3     0.00000    7.94604   35.91085    9.65003
    2144      444        4     0.00000    7.03964   36.33014   10.06905
    2145      444        3     0.00000    9.63688   49.10790   21.08973
    2146      444        4     0.00000   10.05565   49.53692   20.18779
    2147      444        3     0.00000    9.66343   35.91663    7.94000
    2148      444        4     0.00000   10.08824   36.34144    7.03832
    2149      444        3     0.00000   16.62210   49.10475    5.20711
    2150      444        4     0.00000   16.19387   49.52561    6.10826
    2151      444        3     0.00000   16.63840   35.99392   18.34396
    2152      444        4     0.00000   16.20281   36.42399   19.23775
    2153      444        3     0.00000    3.49918   35.93240    5.19265
    2154      444        4     0.00000    3.07253   36.35748    6.09275
    2155      444        3     0.00000   16.64550   29.76053   21.06476
    2156      444        4     0.00000   16.21464   29.32862   20.17044
    2157      444        3     0.00000   16.63735   42.92709    7.93605
    2158      444        4     0.00000   16.21254   42.50517    7.03333
    2159      444        3     0.00000    3.50812   29.79260    7.92580
    2160      444        4     0.00000    3.09041   29.37094    7.01992
    2161      444        3     0.00000    9.65344   29.78156    5.17793
    2162      444        4     0.00000   10.07641   29.36306    6.08302
    2163      444        3     0.00000    9.65633   42.90422   18.33423
    2164      444        4     0.00000   10.08325   42.46915   19.22986
    2165      444        3     0.00000   22.76690   31.51393   16.66206
    2166      444        4     0.00000   23.18961   32.41508   16.23488
    2167      444        3     0.00000   22.78162   44.64027    3.50076
    2168      444        4     0.00000   23.19960   45.54379    3.07463
    2169      444        3     0.00000    9.65318   31.48791    3.45660
    2170      444        4     0.00000   10.07615   32.38880    3.02968
    2171      444        3     0.00000   22.78609   47.37710    9.63636
    2172      444        4     0.00000   23.20775   46.47753   10.06748
    2173      444        3     0.00000   22.79713   34.27285   22.80580
    2174      444        4     0.00000   23.23219   33.38011   23.24245
    2175      444        3     0.00000    9.66764   34.20292    9.65739
    2176      444        4     0.00000   10.09561   33.30414   10.08430
    2177      444        3     0.00000    3.48709   31.49711    9.65055
    2178      444        4     0.00000    3.05360   32.39274   10.07904
    2179      444        3     0.00000    3.49445   44.64159   22.78215
    2180      444        4     0.00000    3.06385   45.54090   23.20722
    2181      444        3     0.00000    3.49576   47.39051   16.62999
    2182      444        4     0.00000    3.05755   46.49515   16.20570
    2183      444        3     0.00000    3.50365   34.21817    3.47789
    2184      444        4     0.00000    3.08173   33.31571    3.05308
    2185      444        3     0.00000   16.64077   47.39051    3.49208
    2186      444        4     0.00000   16.22358   46.48621    3.06675
    2187      444        3     0.00000   16.66548   34.26470   16.64576
    2188      444        4     0.00000   16.25223   33.35382   16.22831
    2189      444        3     0.00000    9.65108   44.63948   16.64182
    2190      444        4     0.00000   10.07063   45.55010   16.23146
    2191      444        3     0.00000    9.64661   47.37973   22.79029
    2192      444        4     0.00000   10.07300   46.47517   23.20617
    2193      444        3     0.00000   16.67231   31.50026   22.75244
    2194      444        4     0.00000   16.26275   32.41587   23.16095
    2195      444        3     0.00000   16.63551   44.63423    9.65765
    2196      444        4     0.00000   16.20833   45.53275   10.08693
    2197      444        3     0.00000    3.50943   42.92972   21.06555
    2198      444        4     0.00000    3.08751   42.50280   20.16308
    2199      444        3     0.00000    3.52941   49.10264   18.34580
    2200      444        4     0.00000    3.11880   49.52798   19.25273
    2201      444        3     0.00000   22.78819   35.97236   21.08079
    2202      444        4     0.00000   23.20275   36.38745   20.16729
    2203      444        3     0.00000   22.80028   49.08450    7.91450
    2204      444        4     0.00000   23.23062   49.50564    7.01440
    2205      444        3     0.00000   22.80081   42.92577    5.21552
    2206      444        4     0.00000   23.23482   42.50044    6.11115
    2207      444        3     0.00000   22.77032   29.80654   18.38392
    2208      444        4     0.00000   23.19303   29.38803   19.28927
    2209      444        3     0.00000   21.05713   29.79418   16.66705
    2210      444        4     0.00000   20.15809   29.36542   16.24224
    2211      444        3     0.00000   18.36394   29.76421   22.77794
    2212      444        4     0.00000   19.26298   29.33651   23.20512
    2213      444        3     0.00000   21.07527   49.09476    9.61822
    2214      444        4     0.00000   20.17255   49.52272   10.03725
    2215      444        3     0.00000    7.93237   49.09528   22.81501
    2216      444        4     0.00000    7.03333   49.51668   23.24718
    2217      444        3     0.00000    5.22998   49.08582   16.61763
    2218      444        4     0.00000    6.13323   49.50169   16.18704
    2219      444        3     0.00000   18.34002   49.12052    3.49471
    2220      444        4     0.00000   19.23880   49.55164    3.07122
    2221      444        3     0.00000   21.09183   42.96652   22.80028
    2222      444        4     0.00000   20.19147   42.54039   23.22720
    2223      444        3     0.00000    7.94525   42.91158    9.64976
    2224      444        4     0.00000    7.04358   42.48598   10.07247
    2225      444        3     0.00000    5.19265   35.97263   22.80528
    2226      444        4     0.00000    6.08749   36.40480   23.23535
    2227      444        3     0.00000    7.92712   35.93372   16.64813
    2228      444        4     0.00000    7.01571   36.35222   16.23935
    2229      444        3     0.00000    5.20947   42.91605    3.49682
    2230      444        4     0.00000    6.11115   42.49176    3.07200
    2231      444        3     0.00000   18.37629   42.98019   16.65969
    2232      444        4     0.00000   19.28428   42.56510   16.24382
    2233      444        3     0.00000   16.64471   29.77184    5.17504
    2234      444        4     0.00000   16.22463   29.33835    6.07461
    2235      444        3     0.00000   16.65181   42.97230   18.36341
    2236      444        4     0.00000   16.22726   42.55038   19.26535
    2237      444        3     0.00000    9.66133   42.91815    7.93632
    2238      444        4     0.00000   10.08693   42.49649    7.03385
    2239      444        3     0.00000    9.65896   49.07846    5.20842
    2240      444        4     0.00000   10.08299   49.50090    6.11115
    2241      444        3     0.00000   16.65417   49.04323   21.06397
    2242      444        4     0.00000   16.24014   49.45832   20.15309
    2243      444        3     0.00000   16.63919   35.93582    7.92554
    2244      444        4     0.00000   16.22331   36.36353    7.02124
    2245      444        3     0.00000    3.49787   34.23894   22.79187
    2246      444        4     0.00000    3.09041   33.32386   23.20223
    2247      444        3     0.00000    3.48788   31.50815   16.64129
    2248      444        4     0.00000    3.07411   32.41272   16.21227
    2249      444        3     0.00000   22.81106   47.37605   16.61027
    2250      444        4     0.00000   23.22983   46.47017   16.18967
    2251      444        3     0.00000   22.79976   34.21896    3.50050
    2252      444        4     0.00000   23.22851   33.31807    3.07831
    2253      444        3     0.00000   22.82368   31.49816    9.66422
    2254      444        4     0.00000   23.25927   32.39458   10.08640
    2255      444        3     0.00000   22.82000   44.66840   22.81185
    2256      444        4     0.00000   23.25506   45.55930   23.24586
    2257      129        5     0.00000   14.15814   45.11950   13.28170
    2258      129        6     0.00000   14.99252   44.83585   12.83034
    2259      129        6     0.00000   13.85793   45.91392   12.77198
    2260      130        5     0.00000    5.77125   37.40321   12.84190
    2261      130        6     0.00000    5.08697   36.90348   12.32955
    2262      130        6     0.00000    6.41004   37.72287   12.15631
    2263      131        5     0.00000   12.57324   38.26414   10.79723
    2264      131        6     0.00000   12.36083   38.33775   11.76147
    2265      131        6     0.00000   12.71940   37.29596   10.64818
    2266      132        5     0.00000   23.10496   43.56589    9.05092
    2267      132        6     0.00000   22.53004   44.01777    8.38321
    2268      132        6     0.00000   23.15438   42.62688    8.74099
    2269      133        5     0.00000   22.78215   29.58467   23.59102
    2270      133        6     0.00000   22.14493   30.33860   23.51637
    2271      133        6     0.00000   22.50034   29.10097   24.40779
    2272      134        5     0.00000   19.38181   46.81954   18.41231
    2273      134        6     0.00000   20.23064   46.35924   18.63207
    2274      134        6     0.00000   18.67466   46.19704   18.71725
    2275      135        5     0.00000   25.54185   43.29223   26.15068
    2276      135        6     0.00000   24.58628   43.50858   26.29552
    2277      135        6     0.00000   25.60862   43.09822   25.18197
    2278      136        5     0.00000   24.45143   38.91924    6.88454
    2279      136        6     0.00000   24.78528   39.78831    6.54674
    2280      136        6     0.00000   25.26819   38.41740    7.13217
    2281      137        5     0.00000    5.12062   34.38904   18.04612
    2282      137        6     0.00000    4.87719   35.30807   18.32319
    2283      137        6     0.00000    5.60011   34.01365   18.82661
    2284      138        5     0.00000   25.79158   28.42116    2.39456
    2285      138        6     0.00000   26.56760   28.56259    2.99314
    2286      138        6     0.00000   25.00190   28.59309    2.96712
    2287      139        5     0.00000    3.83435   36.90217   15.63105
    2288      139        6     0.00000    4.36405   36.09486   15.41076
    2289      139        6     0.00000    2.96370   36.75732   15.18258
    2290      140        5     0.00000   20.47538   27.80182    1.22975
    2291      140        6     0.00000   21.15598   28.51422    1.12749
    2292      140        6     0.00000   19.67938   28.14961    0.75473
    2293      141        5     0.00000   13.46519   28.91248    0.23580
    2294      141        6     0.00000   12.93023   29.72688    0.41272
    2295      141        6     0.00000   14.40235   29.23162    0.21083
    2296      142        5     0.00000   12.21993   48.78482   11.78329
    2297      142        6     0.00000   13.01172   48.68309   11.19733
    2298      142        6     0.00000   11.50280   49.10264   11.17893
    2299      143        5     0.00000    5.64901   38.14637    0.27129
    2300      143        6     0.00000    5.28965   38.74784   -0.42849
    2301      143        6     0.00000    5.05911   37.35143    0.24316
    2302      144        5     0.00000   19.95988   45.81744    7.36745
    2303      144        6     0.00000   20.53164   45.71834    8.16975
    2304      144        6     0.00000   19.03428   45.78274    7.71760
    2305      145        5     0.00000   12.58796   50.20542   17.36263
    2306      145        6     0.00000   12.74043   51.14784   17.09975
    2307      145        6     0.00000   12.98859   50.13129   18.26510
    2308      146        5     0.00000   21.58736   35.04966    9.01544
    2309      146        6     0.00000   22.47694   34.69503    9.26701
    2310      146        6     0.00000   21.03663   34.24393    8.84851
    2311      147        5     0.00000   16.35344   51.98853    1.76129
    2312      147        6     0.00000   15.50671   51.95225    2.27338
    2313      147        6     0.00000   17.04192   52.21855    2.43505
    2314      148        5     0.00000   15.92758   39.74757   22.24850
    2315      148        6     0.00000   15.92206   38.79358   21.98299
    2316      148        6     0.00000   14.97359   40.01334   22.23930
    2317      149        5     0.00000    9.98914   43.59717    3.38956
    2318      149        6     0.00000   10.23572   43.85058    2.46449
    2319      149        6     0.00000    9.07695   43.96283    3.51206
    2320      150        5     0.00000   16.20202   36.44265   13.52434
    2321      150        6     0.00000   15.75118   35.61932   13.83874
    2322      150        6     0.00000   16.98119   36.11695   13.00778
    2323      151        5     0.00000    3.31674   28.10545    1.55151
    2324      151        6     0.00000    2.60487   27.43458    1.39668
    2325      151        6     0.00000    3.81253   27.76397    2.33778
    2326      152        5     0.00000   11.02515   34.75576   24.46326
    2327      152        6     0.00000   11.81273   34.16454   24.35863
    2328      152        6     0.00000   10.94181   34.88772   25.44117
    2329      153        5     0.00000   15.17048   51.58685   22.62915
    2330      153        6     0.00000   15.38263   51.76981   21.67937
    2331      153        6     0.00000   15.39945   52.42701   23.09997
    2332      154        5     0.00000   10.64239   30.72714   15.53615
    2333      154        6     0.00000   11.46389   31.23739   15.32322
    2334      154        6     0.00000   10.79802   29.83098   15.14551
    2335      155        5     0.00000   24.76557   48.86237   22.38678
    2336      155        6     0.00000   25.57445   49.24670   21.96459
    2337      155        6     0.00000   24.01295   49.36447   21.98457
    2338      156        5     0.00000   11.51673   29.76369    9.60034
    2339      156        6     0.00000   12.24622   30.04733    8.99414
    2340      156        6     0.00000   11.88055   29.90880   10.50964
    2341      157        5     0.00000   16.95491   40.15293   15.33768
    2342      157        6     0.00000   17.24144   39.68185   16.15996
    2343      157        6     0.00000   17.72172   40.05855   14.71807
    2344      158        5     0.00000    9.23362   42.10638   22.24061
    2345      158        6     0.00000    9.68183   42.86873   21.79477
    2346      158        6     0.00000    9.32905   42.29355   23.20827
    2347      159        5     0.00000    1.46345   33.31702   25.79264
    2348      159        6     0.00000    0.69689   33.91849   25.96798
    2349      159        6     0.00000    1.26550   32.91613   24.90910
    2350      160        5     0.00000   21.43910   47.74882    4.37457
    2351      160        6     0.00000   20.76034   47.05928    4.16427
    2352      160        6     0.00000   21.91649   47.89498    3.51942
    2353      161        5     0.00000    6.92923   31.85909    6.52045
    2354      161        6     0.00000    6.13770   31.70846    5.94422
    2355      161        6     0.00000    7.59773   32.27497    5.91951
    2356      162        5     0.00000   12.06930   36.70606    4.15480
    2357      162        6     0.00000   12.57087   37.06331    3.37931
    2358      162        6     0.00000   12.70284   36.08409    4.59250
    2359      163        5     0.00000    0.39300   50.84001   19.58711
    2360      163        6     0.00000    1.05704   50.67361   20.30241
    2361      163        6     0.00000   -0.01236   51.71172   19.82371
    2362      164        5     0.00000   11.88555   51.39311    1.96476
    2363      164        6     0.00000   11.59717   52.26061    1.58385
    2364      164        6     0.00000   12.81667   51.28033    1.64746
    2365      165        5     0.00000   22.44040   26.82365   12.12345
    2366      165        6     0.00000   22.77189   25.89805   12.24228
    2367      165        6     0.00000   23.02347   27.37254   12.70599
    2368      166        5     0.00000    3.41822   49.59344    2.04835
    2369      166        6     0.00000    3.00681   49.14865    2.83147
    2370      166        6     0.00000    4.36905   49.31820    2.07780
    2371      167        5     0.00000    3.33830   41.34140   15.72858
    2372      167        6     0.00000    3.27547   42.32904   15.69230
    2373      167        6     0.00000    4.30307   41.15870   15.85555
    2374      168        5     0.00000   25.01294   50.10447   25.42802
    2375      168        6     0.00000   24.75216   49.15732   25.55315
    2376      168        6     0.00000   25.73612   50.07635   24.75242
    2377      169        5     0.00000   25.56840   36.91952   24.27898
    2378      169        6     0.00000   24.71431   36.84722   24.77451
    2379      169        6     0.00000   25.56709   36.14139   23.66673
    2380      170        5     0.00000   24.18198   35.09724   13.60793
    2381      170        6     0.00000   24.60127   35.66453   14.30272
    2382      170        6     0.00000   23.22247   35.34066   13.63448
    2383      171        5     0.00000    0.38485   38.90872   17.84370
    2384      171        6     0.00000   -0.29758   38.72602   17.14996
    2385      171        6     0.00000   -0.12907   38.96971   18.68781
    2386      172        5     0.00000    2.97185   40.73915    0.33333
    2387      172        6     0.00000    2.24630   40.20445    0.74395
    2388      172        6     0.00000    3.72578   40.66554    0.97134
    2389      173        5     0.00000   26.36519   42.55249    3.37642
    2390      173        6     0.00000   25.66461   42.18078    3.96895
    2391      173        6     0.00000   25.96009   43.37162    2.99498
    2392      174        5     0.00000   17.96541   52.25088   14.10872
    2393      174        6     0.00000   18.07030   52.29925   15.09215
    2394      174        6     0.00000   17.09187   51.80451   13.97360
    2395      175        5     0.00000   16.65154   29.58992   17.42835
    2396      175        6     0.00000   16.29561   30.50974   17.34002
    2397      175        6     0.00000   16.90759   29.33178   16.50749
    2398      176        5     0.00000   24.90358   42.84455   14.36239
    2399      176        6     0.00000   25.48980   42.08482   14.11687
    2400      176        6     0.00000   24.16016   42.80590   13.70940
    2401      177        5     0.00000    8.12322   46.78142   18.93255
    2402      177        6     0.00000    8.52806   46.13737   19.56661
    2403      177        6     0.00000    8.89635   47.19677   18.47408
    2404      178        5     0.00000   15.52826   26.79315    8.65661
    2405      178        6     0.00000   14.61949   26.50583    8.92474
    2406      178        6     0.00000   15.70755   26.29763    7.81828
    2407      179        5     0.00000    8.73231   47.55507    8.06171
    2408      179        6     0.00000    8.08458   47.84056    8.75387
    2409      179        6     0.00000    8.34772   46.72227    7.68895
    2410      180        5     0.00000   23.35917   52.33264    0.60830
    2411      180        6     0.00000   22.58630   52.51218    0.01577
    2412      180        6     0.00000   23.19434   52.89020    1.40956
    2413      181        5     0.00000   19.83816   34.39430   19.46593
    2414      181        6     0.00000   19.45278   34.55492   20.36340
    2415      181        6     0.00000   20.24563   35.25838   19.20936
    2416      182        5     0.00000    1.41376   39.48075   12.68470
    2417      182        6     0.00000    1.51024   38.67450   12.11793
    2418      182        6     0.00000    1.47501   40.23863   12.05037
    2419      183        5     0.00000   18.17493   39.78989    2.39588
    2420      183        6     0.00000   19.10210   39.52202    2.17480
    2421      183        6     0.00000   17.92230   40.42501    1.67953
    2422      184        5     0.00000   13.24884   37.37640   15.92600
    2423      184        6     0.00000   13.29668   36.60616   15.30560
    2424      184        6     0.00000   14.10714   37.35195   16.41890
    2425      185        5     0.00000    5.39401   27.42222   24.49401
    2426      185        6     0.00000    5.22998   28.27185   24.97561
    2427      185        6     0.00000    5.97498   26.90041   25.10258
    2428      186        5     0.00000   23.81079   38.92502   13.76618
    2429      186        6     0.00000   24.62677   38.44158   13.48122
    2430      186        6     0.00000   24.00611   39.87638   13.57402
    2431      187        5     0.00000   25.83338   27.62779   10.41605
    2432      187        6     0.00000   25.39832   27.35703    9.56880
    2433      187        6     0.00000   25.36703   27.10204   11.11347
    2434      188        5     0.00000   19.22014   31.51577   19.41072
    2435      188        6     0.00000   18.94911   31.78444   20.32528
    2436      188        6     0.00000   18.39391   31.60726   18.87235
    2437      189        5     0.00000   12.96808   36.22105   22.15597
    2438      189        6     0.00000   12.45337   36.64376   21.42332
    2439      189        6     0.00000   13.91524   36.32988   21.88862
    2440      190        5     0.00000   13.02381   34.05492   12.84716
    2441      190        6     0.00000   12.78328   35.01180   12.92970
    2442      190        6     0.00000   12.37661   33.69162   12.19128
    2443      191        5     0.00000   17.99670   34.61170    3.97526
    2444      191        6     0.00000   17.67704   34.17006    4.80148
    2445      191        6     0.00000   17.64365   35.53493    4.03335
    2446      192        5     0.00000    2.22527   39.50730   21.70986
    2447      192        6     0.00000    2.41402   40.20892   22.38257
    2448      192        6     0.00000    1.55072   39.91423   21.10997
    2449      444        1     0.00000    8.28516   32.72922   51.23722
    2450      444        1     0.00000    8.27964   45.84741   38.10825
    2451      444        1     0.00000   21.45382   32.75446   38.12087
    2452      444        1     0.00000   21.45040   45.89289   51.27534
    2453      444        1     0.00000   17.99223   46.12449   51.26509
    2454      444        1     0.00000   17.97987   32.98159   38.11509
    2455      444        1     0.00000    4.87772   46.15656   38.10142
    2456      444        1     0.00000    4.87194   33.01471   51.24143
    2457      444        1     0.00000   17.98382   32.74289   27.58310
    2458      444        1     0.00000   18.00537   45.89289   40.74598
    2459      444        1     0.00000    4.87299   32.70320   40.75492
    2460      444        1     0.00000    4.86615   45.85293   27.61123
    2461      444        1     0.00000    8.27937   46.14473   27.60860
    2462      444        1     0.00000    8.26045   33.01077   40.75361
    2463      444        1     0.00000   21.43752   46.15656   40.72863
    2464      444        1     0.00000   21.44146   32.99184   27.59861
    2465      444        1     0.00000   24.97324   34.57437   32.72292
    2466      444        1     0.00000   24.98533   47.70991   45.82796
    2467      444        1     0.00000   11.84349   34.55544   45.82086
    2468      444        1     0.00000   11.82798   47.70754   32.71529
    2469      444        1     0.00000   24.98165   44.33007   46.16155
    2470      444        1     0.00000   24.97377   31.14354   32.99841
    2471      444        1     0.00000   11.83192   44.29879   33.00604
    2472      444        1     0.00000   11.85085   31.19033   46.14972
    2473      444        1     0.00000    1.32254   44.29537   32.72370
    2474      444        1     0.00000    1.30230   31.19007   45.85661
    2475      444        1     0.00000   14.45098   44.32271   45.83874
    2476      444        1     0.00000   14.46124   31.12566   32.70004
    2477      444        1     0.00000    1.31387   34.58646   46.15761
    2478      444        1     0.00000    1.32544   47.71858   32.99263
    2479      444        1     0.00000   14.46702   34.56911   32.96844
    2480      444        1     0.00000   14.44993   47.70123   46.16418
    2481      444        1     0.00000    6.42949   51.26824   34.55650
    2482      444        1     0.00000    6.41688   38.12823   47.70570
    2483      444        1     0.00000   19.58895   51.22171   47.70150
    2484      444        1     0.00000   19.57555   38.10641   34.58410
    2485      444        1     0.00000   19.86892   51.25352   44.28013
    2486      444        1     0.00000   19.84815   38.10563   31.15195
    2487      444        1     0.00000    6.72813   51.25562   31.15694
    2488      444        1     0.00000    6.72550   38.10431   44.31141
    2489      444        1     0.00000    6.38796   27.61991   44.33481
    2490      444        1     0.00000    6.43239   40.74309   31.15931
    2491      444        1     0.00000   19.61156   27.63305   31.12198
    2492      444        1     0.00000   19.58948   40.80487   44.31430
    2493      444        1     0.00000   19.83790   27.62490   34.59330
    2494      444        1     0.00000   19.85499   40.80539   47.70702
    2495      444        1     0.00000    6.76151   27.62858   47.67390
    2496      444        1     0.00000    6.73154   40.73573   34.56570
    2497      444        1     0.00000    6.44027   34.56833   27.59599
    2498      444        1     0.00000    6.42713   47.70465   40.73678
    2499      444        1     0.00000   19.60236   34.61906   40.75124
    2500      444        1     0.00000   19.59106   47.74172   27.61702
    2501      444        1     0.00000   19.83711   44.28144   27.62359
    2502      444        1     0.00000   19.82712   31.15116   40.76990
    2503      444        1     0.00000    6.72418   44.30668   40.74625
    2504      444        1     0.00000    6.71682   31.14459   27.57837
    2505      444        1     0.00000    6.42371   44.30063   51.25536
    2506      444        1     0.00000    6.40636   31.15668   38.12508
    2507      444        1     0.00000   19.57897   44.29643   38.10957
    2508      444        1     0.00000   19.60420   31.14853   51.23117
    2509      444        1     0.00000   19.84132   34.60303   51.24774
    2510      444        1     0.00000   19.84316   47.73225   38.08985
    2511      444        1     0.00000    6.73259   34.54177   38.11167
    2512      444        1     0.00000    6.71682   47.70833   51.26246
    2513      444        1     0.00000    8.25650   51.28138   46.18574
    2514      444        1     0.00000    8.28673   38.09642   33.00630
    2515      444        1     0.00000   21.44593   51.27008   32.96818
    2516      444        1     0.00000   21.43331   38.15978   46.15971
    2517      444        1     0.00000   17.98382   51.28322   32.73080
    2518      444        1     0.00000   18.00458   38.16083   45.85950
    2519      444        1     0.00000    4.91373   51.27008   45.82717
    2520      444        1     0.00000    4.87693   38.09958   32.71056
    2521      444        1     0.00000   18.00195   27.57522   46.14762
    2522      444        1     0.00000   18.00511   40.75045   32.99973
    2523      444        1     0.00000    4.88455   27.61807   33.00078
    2524      444        1     0.00000    4.88745   40.76149   46.14236
    2525      444        1     0.00000    8.28227   27.61123   32.69321
    2526      444        1     0.00000    8.28095   40.73915   45.83243
    2527      444        1     0.00000   21.42254   27.60440   45.87475
    2528      444        1     0.00000   21.43621   40.74493   32.73474
    2529      444        1     0.00000   24.95274   32.73369   44.31194
    2530      444        1     0.00000   24.96956   45.86581   31.14564
    2531      444        1     0.00000   11.81930   32.72686   31.11935
    2532      444        1     0.00000   11.81168   45.84978   44.31272
    2533      444        1     0.00000   24.97061   46.15183   34.56833
    2534      444        1     0.00000   24.96457   33.04547   47.71517
    2535      444        1     0.00000   11.80958   46.17023   47.68835
    2536      444        1     0.00000   11.83140   32.97160   34.56386
    2537      444        1     0.00000    1.32964   32.72370   34.56044
    2538      444        1     0.00000    1.33253   45.85819   47.68336
    2539      444        1     0.00000   14.48884   32.70688   47.66837
    2540      444        1     0.00000   14.46676   45.86213   34.56964
    2541      444        1     0.00000    1.33122   46.18337   44.30563
    2542      444        1     0.00000    1.32281   32.99473   31.13644
    2543      444        1     0.00000   14.47017   46.15393   31.15458
    2544      444        1     0.00000   14.48463   33.04862   44.29695
    2545      444        1     0.00000   18.02877   46.17785   27.61675
    2546      444        1     0.00000   18.03481   33.05887   40.75518
    2547      444        1     0.00000    4.85984   46.14604   40.74178
    2548      444        1     0.00000    4.87588   33.00604   27.58994
    2549      444        1     0.00000    8.28043   32.70793   27.58363
    2550      444        1     0.00000    8.28989   45.86713   40.74651
    2551      444        1     0.00000   21.39704   32.71109   40.76254
    2552      444        1     0.00000   21.39835   45.84741   27.62385
    2553      444        1     0.00000    8.28043   46.14578   51.25615
    2554      444        1     0.00000    8.28989   32.97318   38.11588
    2555      444        1     0.00000   21.40492   46.16812   38.09222
    2556      444        1     0.00000   21.41071   33.04389   51.24826
    2557      444        1     0.00000   18.03560   32.70530   51.23091
    2558      444        1     0.00000   18.01378   45.85793   38.10747
    2559      444        1     0.00000    4.84828   32.72633   38.11483
    2560      444        1     0.00000    4.85958   45.86292   51.25772
    2561      444        1     0.00000    1.33201   44.29537   46.12186
    2562      444        1     0.00000    1.32596   31.15694   32.99999
    2563      444        1     0.00000   14.46939   44.30116   33.00420
    2564      444        1     0.00000   14.49120   31.14853   46.10109
    2565      444        1     0.00000    1.32491   34.56018   32.69689
    2566      444        1     0.00000    1.33621   47.74514   45.86871
    2567      444        1     0.00000   14.48016   34.60513   45.86713
    2568      444        1     0.00000   14.46623   47.71569   32.71976
    2569      444        1     0.00000   24.96089   34.60408   46.14631
    2570      444        1     0.00000   24.97324   47.71017   33.00025
    2571      444        1     0.00000   11.82929   34.54099   33.00814
    2572      444        1     0.00000   11.80826   47.73672   46.12790
    2573      444        1     0.00000   24.97009   44.30668   32.71345
    2574      444        1     0.00000   24.95326   31.17824   45.88290
    2575      444        1     0.00000   11.81352   44.28460   45.87528
    2576      444        1     0.00000   11.82535   31.15773   32.67586
    2577      444        1     0.00000   19.85946   27.60492   44.31115
    2578      444        1     0.00000   19.87365   40.74467   31.17114
    2579      444        1     0.00000    6.71656   27.60598   31.13197
    2580      444        1     0.00000    6.71524   40.74046   44.27172
    2581      444        1     0.00000    6.44921   27.62201   34.56254
    2582      444        1     0.00000    6.45105   40.76517   47.70439
    2583      444        1     0.00000   19.56398   27.57522   47.71254
    2584      444        1     0.00000   19.56556   40.74835   34.56596
    2585      444        1     0.00000   19.88338   51.27402   34.53363
    2586      444        1     0.00000   19.87286   38.16582   47.72726
    2587      444        1     0.00000    6.69737   51.27823   47.74330
    2588      444        1     0.00000    6.72366   38.09353   34.56885
    2589      444        1     0.00000    6.47602   51.26982   44.26725
    2590      444        1     0.00000    6.44027   38.10300   31.14774
    2591      444        1     0.00000   19.54584   51.28428   31.16693
    2592      444        1     0.00000   19.56687   38.16740   44.29248
    2593      444        1     0.00000   19.89232   44.32403   51.27323
    2594      444        1     0.00000   19.89074   31.19007   38.12928
    2595      444        1     0.00000    6.71340   44.28775   38.10668
    2596      444        1     0.00000    6.72392   31.16325   51.22933
    2597      444        1     0.00000    6.43370   34.57963   51.24826
    2598      444        1     0.00000    6.44579   47.71464   38.09879
    2599      444        1     0.00000   19.54374   34.54756   38.10983
    2600      444        1     0.00000   19.55084   47.69309   51.26745
    2601      444        1     0.00000   19.87733   34.55360   27.59940
    2602      444        1     0.00000   19.87681   47.72253   40.73047
    2603      444        1     0.00000    6.70026   34.57779   40.75124
    2604      444        1     0.00000    6.71551   47.70623   27.61360
    2605      444        1     0.00000    6.43055   44.29091   27.60782
    2606      444        1     0.00000    6.43291   31.13697   40.76412
    2607      444        1     0.00000   19.56766   44.32902   40.74703
    2608      444        1     0.00000   19.55031   31.18297   27.58074
    2609      444        1     0.00000   18.04480   27.63226   32.68296
    2610      444        1     0.00000   18.02167   40.80040   45.87186
    2611      444        1     0.00000    4.83513   27.62070   45.89841
    2612      444        1     0.00000    4.86983   40.74046   32.72265
    2613      444        1     0.00000    8.31618   27.63069   46.10661
    2614      444        1     0.00000    8.29357   40.73836   33.00183
    2615      444        1     0.00000   21.40440   27.62096   33.03390
    2616      444        1     0.00000   21.42201   40.79777   46.14709
    2617      444        1     0.00000    8.29357   51.25825   32.71792
    2618      444        1     0.00000    8.28831   38.10221   45.87370
    2619      444        1     0.00000   21.43174   51.25063   45.84426
    2620      444        1     0.00000   21.41018   38.10273   32.71634
    2621      444        1     0.00000   18.02745   51.22329   46.13658
    2622      444        1     0.00000   18.01562   38.11220   33.01760
    2623      444        1     0.00000    4.86536   51.26666   32.99342
    2624      444        1     0.00000    4.85459   38.12587   46.14157
    2625      444        1     0.00000    1.32333   46.15998   34.56123
    2626      444        1     0.00000    1.31255   33.02286   47.72121
    2627      444        1     0.00000   14.44809   46.13342   47.72358
    2628      444        1     0.00000   14.46702   33.00130   34.52653
    2629      444        1     0.00000    1.30809   32.74947   44.28933
    2630      444        1     0.00000    1.32307   45.85346   31.15589
    2631      444        1     0.00000   14.45650   32.69295   31.14143
    2632      444        1     0.00000   14.45151   45.88842   44.27802
    2633      444        1     0.00000   24.97929   46.14263   44.27172
    2634      444        1     0.00000   24.97061   33.00919   31.16115
    2635      444        1     0.00000   11.83192   46.14578   31.15064
    2636      444        1     0.00000   11.84428   32.99789   44.25331
    2637      444        1     0.00000   24.98034   32.70925   34.55860
    2638      444        1     0.00000   24.98428   45.89788   47.71885
    2639      444        1     0.00000   11.85111   32.75157   47.71596
    2640      444        1     0.00000   11.82824   45.86056   34.57122
    2641      444        2     0.00000    7.33170   33.61749   26.27239
    2642      444        2     0.00000    7.33143   46.75434   39.42265
    2643      444        2     0.00000   20.47302   33.63221   39.43632
    2644      444        2     0.00000   20.46697   46.76276   26.30157
    2645      444        2     0.00000   18.96278   45.25199   26.30026
    2646      444        2     0.00000   18.96488   32.12697   39.44237
    2647      444        2     0.00000    5.81935   45.24936   39.42423
    2648      444        2     0.00000    5.82303   32.10830   26.26608
    2649      444        2     0.00000   18.96041   33.62564   26.27108
    2650      444        2     0.00000   18.95752   46.77800   39.41897
    2651      444        2     0.00000    5.81515   33.61066   39.43316
    2652      444        2     0.00000    5.81672   46.75618   26.29237
    2653      444        2     0.00000    7.32565   45.24831   26.28790
    2654      444        2     0.00000    7.31934   32.09805   39.43921
    2655      444        2     0.00000   20.46592   45.26908   39.41949
    2656      444        2     0.00000   20.47197   32.12092   26.27108
    2657      444        2     0.00000    0.00815   33.61407   33.60750
    2658      444        2     0.00000    0.01551   46.77091   46.74330
    2659      444        2     0.00000   13.16577   33.62249   46.73568
    2660      444        2     0.00000   13.14737   46.75987   33.61723
    2661      444        2     0.00000    0.01183   45.26040   45.23806
    2662      444        2     0.00000    0.00447   32.10305   32.10094
    2663      444        2     0.00000   13.15078   45.25304   32.10725
    2664      444        2     0.00000   13.16761   32.11987   45.22386
    2665      444        2     0.00000    0.00237   45.25620   33.61381
    2666      444        2     0.00000   -0.01025   32.14222   46.76039
    2667      444        2     0.00000   13.13107   45.25856   46.75066
    2668      444        2     0.00000   13.14632   32.09253   33.58831
    2669      444        2     0.00000   -0.01025   33.64720   45.24857
    2670      444        2     0.00000    0.00342   46.76013   32.10094
    2671      444        2     0.00000   13.14316   33.60593   32.08543
    2672      444        2     0.00000   13.13081   46.76933   45.24463
    2673      444        2     0.00000    7.33800   26.29605   33.60698
    2674      444        2     0.00000    7.33432   39.43369   46.75434
    2675      444        2     0.00000   20.47696   26.26976   46.75829
    2676      444        2     0.00000   20.47328   39.42580   33.62669
    2677      444        2     0.00000   18.96935   26.27081   45.24884
    2678      444        2     0.00000   18.96646   39.42817   32.11645
    2679      444        2     0.00000    5.82829   26.29263   32.10015
    2680      444        2     0.00000    5.82461   39.43316   45.24568
    2681      444        2     0.00000    7.33248   26.30630   45.25015
    2682      444        2     0.00000    7.33459   39.42028   32.10699
    2683      444        2     0.00000   20.47407   26.30814   32.10042
    2684      444        2     0.00000   20.49562   39.46786   45.23674
    2685      444        2     0.00000   18.96593   26.30946   33.60593
    2686      444        2     0.00000   18.94622   39.46708   46.78247
    2687      444        2     0.00000    5.82592   26.30525   46.76197
    2688      444        2     0.00000    5.82645   39.41739   33.61565
    2689      444        3     0.00000    8.51281   30.95164   49.63944
    2690      444        3     0.00000    7.81776   31.63591   50.76115
    2691      444        3     0.00000    8.50072   44.06772   36.51494
    2692      444        3     0.00000    7.80882   44.75515   37.63612
    2693      444        3     0.00000   17.78455   47.90497   49.66231
    2694      444        3     0.00000   18.46226   47.21833   50.79164
    2695      444        3     0.00000   17.77062   34.76838   36.51126
    2696      444        3     0.00000   18.45095   34.07438   37.63823
    2697      444        3     0.00000    4.64612   34.80649   49.66073
    2698      444        3     0.00000    5.33960   34.11197   50.77639
    2699      444        3     0.00000   17.77824   30.95032   29.17457
    2700      444        3     0.00000   18.45621   31.64905   28.05287
    2701      444        3     0.00000   17.80190   44.12030   42.35480
    2702      444        3     0.00000   18.47908   44.80273   41.22284
    2703      444        3     0.00000    4.64218   30.93560   42.36111
    2704      444        3     0.00000    5.33986   31.61173   41.23389
    2705      444        3     0.00000    8.50019   47.92468   29.20586
    2706      444        3     0.00000    7.80987   47.23673   28.08336
    2707      444        3     0.00000    8.48994   34.79098   42.34087
    2708      444        3     0.00000    7.79357   34.10645   41.22206
    2709      444        3     0.00000   23.36889   34.78126   30.94585
    2710      444        3     0.00000   24.49717   34.10093   31.63276
    2711      444        3     0.00000   10.24019   34.78336   44.05379
    2712      444        3     0.00000   11.37004   34.08910   44.72807
    2713      444        3     0.00000   23.38624   44.11662   47.93730
    2714      444        3     0.00000   24.51058   44.80378   47.25276
    2715      444        3     0.00000   23.38624   30.93113   34.79335
    2716      444        3     0.00000   24.50663   31.61488   34.09357
    2717      444        3     0.00000   10.23467   44.07429   34.78573
    2718      444        3     0.00000   11.35769   44.76698   34.09935
    2719      444        3     0.00000    2.91927   44.07272   30.94138
    2720      444        3     0.00000    1.79573   44.76198   31.62934
    2721      444        3     0.00000   16.06217   44.11530   44.07666
    2722      444        3     0.00000   14.92732   44.79721   44.75042
    2723      444        3     0.00000   16.05192   30.92035   30.90879
    2724      444        3     0.00000   14.92969   31.59884   31.60621
    2725      444        3     0.00000    2.90981   34.80413   47.93493
    2726      444        3     0.00000    1.78600   34.11539   47.24961
    2727      444        3     0.00000   16.05796   34.77837   34.76102
    2728      444        3     0.00000   14.93889   34.09541   34.06123
    2729      444        3     0.00000    4.65112   49.67230   34.77731
    2730      444        3     0.00000    5.33618   50.79585   34.08726
    2731      444        3     0.00000    4.63114   36.54518   47.93599
    2732      444        3     0.00000    5.32146   37.66005   47.23936
    2733      444        3     0.00000   21.65992   49.66836   44.05326
    2734      444        3     0.00000   20.96513   50.78428   44.74726
    2735      444        3     0.00000   21.63074   36.50574   30.93849
    2736      444        3     0.00000   20.93989   37.63060   31.62303
    2737      444        3     0.00000    8.50361   49.65548   30.93954
    2738      444        3     0.00000    7.82039   50.78244   31.62724
    2739      444        3     0.00000    4.61694   29.21322   44.10400
    2740      444        3     0.00000    5.29727   28.09178   44.80405
    2741      444        3     0.00000    4.65033   42.33955   30.94112
    2742      444        3     0.00000    5.33907   41.21496   31.62960
    2743      444        3     0.00000   21.63915   29.21243   34.81175
    2744      444        3     0.00000   20.93595   28.09309   34.12695
    2745      444        3     0.00000   21.64257   42.39581   47.92547
    2746      444        3     0.00000   20.94935   41.27437   47.23646
    2747      444        3     0.00000    8.50755   42.33719   34.78283
    2748      444        3     0.00000    7.82328   41.21049   34.09488
    2749      444        3     0.00000    4.65900   34.78021   29.19166
    2750      444        3     0.00000    5.34696   34.09646   28.06654
    2751      444        3     0.00000    4.65480   47.93520   42.33535
    2752      444        3     0.00000    5.33381   47.23909   41.21128
    2753      444        3     0.00000   21.62600   44.07298   29.21821
    2754      444        3     0.00000   20.93016   44.75436   28.09572
    2755      444        3     0.00000   21.61128   30.94822   42.37452
    2756      444        3     0.00000   20.92149   31.62303   41.24256
    2757      444        3     0.00000    8.49835   30.92535   29.17168
    2758      444        3     0.00000    7.80987   31.61330   28.05129
    2759      444        3     0.00000    4.64954   44.08691   49.65101
    2760      444        3     0.00000    5.33145   44.77197   50.78139
    2761      444        3     0.00000    4.64218   30.94296   36.51626
    2762      444        3     0.00000    5.31831   31.63092   37.64559
    2763      444        3     0.00000   21.63389   34.82490   49.65968
    2764      444        3     0.00000   20.93936   34.13668   50.77850
    2765      444        3     0.00000   21.62732   47.94045   36.49050
    2766      444        3     0.00000   20.93516   47.25934   37.61667
    2767      444        3     0.00000    8.50992   34.75760   36.51705
    2768      444        3     0.00000    7.82354   34.06780   37.64086
    2769      444        3     0.00000    8.48442   49.68019   47.94992
    2770      444        3     0.00000    7.78937   50.80636   47.27563
    2771      444        3     0.00000    8.50571   36.49181   34.78468
    2772      444        3     0.00000    7.81671   37.62009   34.09804
    2773      444        3     0.00000   17.77272   49.69044   30.93928
    2774      444        3     0.00000   18.45305   50.81293   31.63512
    2775      444        3     0.00000   17.79191   36.57409   44.07377
    2776      444        3     0.00000   18.47461   37.69501   44.76356
    2777      444        3     0.00000    4.65690   36.50890   30.92509
    2778      444        3     0.00000    5.34643   37.63008   31.61619
    2779      444        3     0.00000   17.79454   29.17983   47.91942
    2780      444        3     0.00000   18.47303   28.04840   47.23962
    2781      444        3     0.00000   17.79191   42.34954   34.78073
    2782      444        3     0.00000   18.47540   41.22363   34.09278
    2783      444        3     0.00000    4.66374   29.21926   34.77600
    2784      444        3     0.00000    5.35616   28.09414   34.09146
    2785      444        3     0.00000    8.49888   29.20086   30.90774
    2786      444        3     0.00000    7.81066   28.07968   31.59911
    2787      444        3     0.00000    8.50256   42.33325   44.05537
    2788      444        3     0.00000    7.81119   41.20970   44.73911
    2789      444        3     0.00000   23.34655   30.95926   44.10768
    2790      444        3     0.00000   24.47745   31.64537   44.78906
    2791      444        3     0.00000   10.22836   30.93639   30.90169
    2792      444        3     0.00000   11.35006   31.63013   31.58649
    2793      444        3     0.00000   23.36968   47.93073   34.77048
    2794      444        3     0.00000   24.49796   47.24199   34.09251
    2795      444        3     0.00000   10.21627   47.94782   47.92205
    2796      444        3     0.00000   11.33718   47.26433   47.22201
    2797      444        3     0.00000   10.24045   34.76049   34.78914
    2798      444        3     0.00000   11.36032   34.06833   34.10014
    2799      444        3     0.00000    2.92295   30.94191   34.77705
    2800      444        3     0.00000    1.80020   31.62934   34.09067
    2801      444        3     0.00000   16.08530   30.93061   47.89287
    2802      444        3     0.00000   14.96307   31.61646   47.19677
    2803      444        3     0.00000    2.93452   47.95465   44.07902
    2804      444        3     0.00000    1.80729   47.27511   44.77460
    2805      444        3     0.00000    2.92374   34.77653   30.91957
    2806      444        3     0.00000    1.79730   34.08831   31.60489
    2807      444        3     0.00000   16.05770   47.94440   30.93560
    2808      444        3     0.00000   14.93889   47.24856   31.62513
    2809      444        3     0.00000   17.79507   47.95912   29.20612
    2810      444        3     0.00000   18.49485   47.27222   28.08704
    2811      444        3     0.00000   17.81557   34.83357   42.35322
    2812      444        3     0.00000   18.50878   34.15114   41.22679
    2813      444        3     0.00000    8.50177   44.08139   42.34245
    2814      444        3     0.00000    7.81723   44.77487   41.21969
    2815      444        3     0.00000    8.49415   47.93441   49.66547
    2816      444        3     0.00000    7.80935   47.24014   50.78743
    2817      444        3     0.00000   17.81978   30.93166   49.62866
    2818      444        3     0.00000   18.51036   31.61646   50.75563
    2819      444        3     0.00000   17.79349   44.07561   36.51705
    2820      444        3     0.00000   18.48407   44.76382   37.63823
    2821      444        3     0.00000    2.92663   44.08087   47.91049
    2822      444        3     0.00000    1.80388   44.76461   47.21543
    2823      444        3     0.00000   16.06138   44.08008   34.78704
    2824      444        3     0.00000   14.93968   44.76987   34.09882
    2825      444        3     0.00000   16.07742   34.82936   44.08165
    2826      444        3     0.00000   14.95440   34.14062   44.77171
    2827      444        3     0.00000   23.36758   34.82384   47.93336
    2828      444        3     0.00000   24.49112   34.13720   47.24330
    2829      444        3     0.00000   23.36679   44.08586   30.94191
    2830      444        3     0.00000   24.49454   44.77565   31.62171
    2831      444        3     0.00000   10.22626   44.06877   44.08087
    2832      444        3     0.00000   11.34270   44.75489   44.78039
    2833      444        3     0.00000   21.62022   29.22216   44.11004
    2834      444        3     0.00000   20.94620   28.08468   44.78801
    2835      444        3     0.00000   21.64546   42.34350   30.95111
    2836      444        3     0.00000   20.96513   41.21759   31.64169
    2837      444        3     0.00000    4.66637   42.36111   47.91601
    2838      444        3     0.00000    5.35826   41.23730   47.23278
    2839      444        3     0.00000   21.64572   49.66678   34.75234
    2840      444        3     0.00000   20.97196   50.79637   34.06097
    2841      444        3     0.00000   21.64125   36.55543   47.93336
    2842      444        3     0.00000   20.95934   37.68844   47.25224
    2843      444        3     0.00000    4.68582   49.66941   44.06167
    2844      444        3     0.00000    5.38350   50.79506   44.73780
    2845      444        3     0.00000   21.66281   44.11372   49.67256
    2846      444        3     0.00000   20.98248   44.79826   50.80137
    2847      444        3     0.00000   21.66517   30.95374   36.53519
    2848      444        3     0.00000   20.98458   31.65747   37.65505
    2849      444        3     0.00000    4.66032   47.93572   36.50443
    2850      444        3     0.00000    5.35090   47.24751   37.62719
    2851      444        3     0.00000   21.64730   34.77416   29.20454
    2852      444        3     0.00000   20.96854   34.08358   28.07443
    2853      444        3     0.00000   21.66176   47.94151   42.31852
    2854      444        3     0.00000   20.97065   47.25171   41.19945
    2855      444        3     0.00000    4.65059   44.07166   29.20822
    2856      444        3     0.00000    5.33750   44.75988   28.08257
    2857      444        3     0.00000   17.81189   29.21821   30.90406
    2858      444        3     0.00000   18.51509   28.10282   31.58964
    2859      444        3     0.00000   17.81531   42.40370   44.10058
    2860      444        3     0.00000   18.49669   41.27647   44.78564
    2861      444        3     0.00000    8.52990   29.22741   47.89866
    2862      444        3     0.00000    7.85009   28.10334   47.20176
    2863      444        3     0.00000    8.49678   36.50469   44.08928
    2864      444        3     0.00000    7.81539   37.62824   44.78249
    2865      444        3     0.00000   17.80926   49.61999   47.91233
    2866      444        3     0.00000   18.49880   50.74616   47.22753
    2867      444        3     0.00000   17.78771   36.51074   34.78862
    2868      444        3     0.00000   18.48223   37.63639   34.11013
    2869      444        3     0.00000    2.92137   47.93914   34.77679
    2870      444        3     0.00000    1.79678   47.25119   34.08831
    2871      444        3     0.00000   16.05928   47.90497   47.92863
    2872      444        3     0.00000   14.92522   47.22464   47.25224
    2873      444        3     0.00000    2.89877   30.95768   44.08297
    2874      444        3     0.00000    1.77680   31.65589   44.76277
    2875      444        3     0.00000   23.38703   47.93125   44.05379
    2876      444        3     0.00000   24.50926   47.23778   44.73859
    2877      444        3     0.00000   10.23467   47.92468   30.93429
    2878      444        3     0.00000   11.35769   47.23725   31.62145
    2879      444        3     0.00000   10.25438   30.96452   47.92126
    2880      444        3     0.00000   11.37898   31.65904   47.24330
    2881      444        3     0.00000    9.66895   31.51656   49.07373
    2882      444        4     0.00000   10.08693   32.41850   49.50274
    2883      444        3     0.00000    9.65712   44.62923   35.94213
    2884      444        4     0.00000   10.07904   45.53169   36.36800
    2885      444        3     0.00000   16.62552   47.35318   49.09055
    2886      444        4     0.00000   16.19019   46.46150   49.52430
    2887      444        3     0.00000   16.62158   34.21344   35.92084
    2888      444        4     0.00000   16.19308   33.31124   36.33934
    2889      444        3     0.00000    3.50286   47.37710   35.92951
    2890      444        4     0.00000    3.08042   46.47412   36.35275
    2891      444        3     0.00000   16.61448   31.48817   29.75054
    2892      444        4     0.00000   16.17626   32.38354   29.32652
    2893      444        3     0.00000   16.63419   44.66761   42.91657
    2894      444        4     0.00000   16.19335   45.55325   42.47467
    2895      444        3     0.00000    3.49576   44.63133   29.78524
    2896      444        4     0.00000    3.07174   45.53353   29.36174
    2897      444        3     0.00000    9.65949   47.36817   29.77709
    2898      444        4     0.00000   10.08851   46.47201   29.34755
    2899      444        3     0.00000    9.66080   34.23920   42.89397
    2900      444        4     0.00000   10.09508   33.35435   42.44865
    2901      444        3     0.00000   22.78425   35.93214   31.50447
    2902      444        4     0.00000   23.20223   36.35564   32.40956
    2903      444        3     0.00000   22.81238   49.08740   44.61504
    2904      444        4     0.00000   23.23272   49.50721   45.52092
    2905      444        3     0.00000    9.65949   35.92846   44.63317
    2906      444        4     0.00000   10.08746   36.34512   45.53616
    2907      444        3     0.00000   22.80081   42.96889   47.36974
    2908      444        4     0.00000   23.22326   42.54381   46.46754
    2909      444        3     0.00000   22.79818   29.77683   34.24393
    2910      444        4     0.00000   23.21642   29.34623   33.34226
    2911      444        3     0.00000    9.68473   29.81048   47.35055
    2912      444        4     0.00000   10.11322   29.39276   46.44730
    2913      444        3     0.00000    3.49419   42.91579   31.49948
    2914      444        4     0.00000    3.06859   42.49071   32.40010
    2915      444        3     0.00000    3.46133   29.79865   44.65105
    2916      444        4     0.00000    3.02679   29.37909   45.54983
    2917      444        3     0.00000    3.47631   35.96605   47.37947
    2918      444        4     0.00000    3.04782   36.39165   46.48095
    2919      444        3     0.00000    3.49366   49.09739   34.22106
    2920      444        4     0.00000    3.06464   49.52561   33.32333
    2921      444        3     0.00000    5.21552   49.09344   35.92951
    2922      444        4     0.00000    6.11772   49.51773   36.35275
    2923      444        3     0.00000   18.35631   49.05164   49.07741
    2924      444        4     0.00000   19.25746   49.47593   49.50301
    2925      444        3     0.00000   18.33292   35.93056   35.94844
    2926      444        4     0.00000   19.22671   36.35774   36.38613
    2927      444        3     0.00000   21.10629   49.09975   42.89213
    2928      444        4     0.00000   20.20725   49.52877   42.46495
    2929      444        3     0.00000   21.08211   35.93004   29.77736
    2930      444        4     0.00000   20.18464   36.35643   29.34571
    2931      444        3     0.00000    7.94157   49.07925   29.78498
    2932      444        4     0.00000    7.03911   49.50301   29.36253
    2933      444        3     0.00000    5.18687   29.77867   42.94733
    2934      444        4     0.00000    6.08617   29.34518   42.52830
    2935      444        3     0.00000   18.36105   29.80732   29.75291
    2936      444        4     0.00000   19.27560   29.40512   29.33756
    2937      444        3     0.00000   21.09315   29.79917   35.96737
    2938      444        4     0.00000   20.18963   29.38277   36.39665
    2939      444        3     0.00000    7.96234   29.79576   49.05559
    2940      444        4     0.00000    7.06119   29.36621   49.47488
    2941      444        3     0.00000    5.21683   35.93530   29.76921
    2942      444        4     0.00000    6.11851   36.36090   29.34597
    2943      444        3     0.00000   18.36000   35.99681   42.92315
    2944      444        4     0.00000   19.25746   36.42767   42.49676
    2945      444        3     0.00000   21.07738   42.91526   29.79733
    2946      444        4     0.00000   20.17728   42.48598   29.37568
    2947      444        3     0.00000    7.94499   42.91815   42.90422
    2948      444        4     0.00000    7.04595   42.49386   42.47310
    2949      444        3     0.00000    7.93947   29.77210   29.75107
    2950      444        4     0.00000    7.03622   29.34702   29.32994
    2951      444        3     0.00000    5.21736   42.93682   49.07425
    2952      444        4     0.00000    6.11930   42.51437   49.50064
    2953      444        3     0.00000    5.21394   29.79497   35.93556
    2954      444        4     0.00000    6.11746   29.37568   36.36116
    2955      444        3     0.00000   18.35369   42.92367   35.93609
    2956      444        4     0.00000   19.25773   42.50096   36.35669
    2957      444        3     0.00000   21.07212   35.97447   49.07977
    2958      444        4     0.00000   20.16045   36.38981   49.49276
    2959      444        3     0.00000    7.94604   35.91085   35.93793
    2960      444        4     0.00000    7.03964   36.33014   36.35695
    2961      444        3     0.00000    9.63688   49.10790   47.37763
    2962      444        4     0.00000   10.05565   49.53692   46.47569
    2963      444        3     0.00000    9.66343   35.91663   34.22790
    2964      444        4     0.00000   10.08824   36.34144   33.32622
    2965      444        3     0.00000   16.62210   49.10475   31.49501
    2966      444        4     0.00000   16.19387   49.52561   32.39616
    2967      444        3     0.00000   16.63840   35.99392   44.63186
    2968      444        4     0.00000   16.20281   36.42399   45.52565
    2969      444        3     0.00000    3.49918   35.93240   31.48055
    2970      444        4     0.00000    3.07253   36.35748   32.38065
    2971      444        3     0.00000   16.64550   29.76053   47.35266
    2972      444        4     0.00000   16.21464   29.32862   46.45834
    2973      444        3     0.00000   16.63735   42.92709   34.22395
    2974      444        4     0.00000   16.21254   42.50517   33.32123
    2975      444        3     0.00000    3.50812   29.79260   34.21370
    2976      444        4     0.00000    3.09041   29.37094   33.30782
    2977      444        3     0.00000    9.65344   29.78156   31.46583
    2978      444        4     0.00000   10.07641   29.36306   32.37092
    2979      444        3     0.00000    9.65633   42.90422   44.62213
    2980      444        4     0.00000   10.08325   42.46915   45.51776
    2981      444        3     0.00000   22.76690   31.51393   42.94996
    2982      444        4     0.00000   23.18961   32.41508   42.52278
    2983      444        3     0.00000   22.78162   44.64027   29.78866
    2984      444        4     0.00000   23.19960   45.54379   29.36253
    2985      444        3     0.00000    9.65318   31.48791   29.74450
    2986      444        4     0.00000   10.07615   32.38880   29.31758
    2987      444        3     0.00000   22.78609   47.37710   35.92426
    2988      444        4     0.00000   23.20775   46.47753   36.35538
    2989      444        3     0.00000   22.79713   34.27285   49.09370
    2990      444        4     0.00000   23.23219   33.38011   49.53035
    2991      444        3     0.00000    9.66764   34.20292   35.94529
    2992      444        4     0.00000   10.09561   33.30414   36.37220
    2993      444        3     0.00000    3.48709   31.49711   35.93845
    2994      444        4     0.00000    3.05360   32.39274   36.36694
    2995      444        3     0.00000    3.49445   44.64159   49.07005
    2996      444        4     0.00000    3.06385   45.54090   49.49512
    2997      444        3     0.00000    3.49576   47.39051   42.91789
    2998      444        4     0.00000    3.05755   46.49515   42.49360
    2999      444        3     0.00000    3.50365   34.21817   29.76579
    3000      444        4     0.00000    3.08173   33.31571   29.34098
    3001      444        3     0.00000   16.64077   47.39051   29.77998
    3002      444        4     0.00000   16.22358   46.48621   29.35465
    3003      444        3     0.00000   16.66548   34.26470   42.93366
    3004      444        4     0.00000   16.25223   33.35382   42.51621
    3005      444        3     0.00000    9.65108   44.63948   42.92972
    3006      444        4     0.00000   10.07063   45.55010   42.51936
    3007      444        3     0.00000    9.64661   47.37973   49.07819
    3008      444        4     0.00000   10.07300   46.47517   49.49407
    3009      444        3     0.00000   16.67231   31.50026   49.04034
    3010      444        4     0.00000   16.26275   32.41587   49.44885
    3011      444        3     0.00000   16.63551   44.63423   35.94555
    3012      444        4     0.00000   16.20833   45.53275   36.37483
    3013      444        3     0.00000    3.50943   42.92972   47.35345
    3014      444        4     0.00000    3.08751   42.50280   46.45098
    3015      444        3     0.00000    3.52941   49.10264   44.63370
    3016      444        4     0.00000    3.11880   49.52798   45.54063
    3017      444        3     0.00000   22.78819   35.97236   47.36869
    3018      444        4     0.00000   23.20275   36.38745   46.45519
    3019      444        3     0.00000   22.80028   49.08450   34.20240
    3020      444        4     0.00000   23.23062   49.50564   33.30230
    3021      444        3     0.00000   22.80081   42.92577   31.50342
    3022      444        4     0.00000   23.23482   42.50044   32.39905
    3023      444        3     0.00000   22.77032   29.80654   44.67182
    3024      444        4     0.00000   23.19303   29.38803   45.57717
    3025      444        3     0.00000   21.05713   29.79418   42.95495
    3026      444        4     0.00000   20.15809   29.36542   42.53014
    3027      444        3     0.00000   18.36394   29.76421   49.06584
    3028      444        4     0.00000   19.26298   29.33651   49.49302
    3029      444        3     0.00000   21.07527   49.09476   35.90612
    3030      444        4     0.00000   20.17255   49.52272   36.32515
    3031      444        3     0.00000    7.93237   49.09528   49.10291
    3032      444        4     0.00000    7.03333   49.51668   49.53508
    3033      444        3     0.00000    5.22998   49.08582   42.90553
    3034      444        4     0.00000    6.13323   49.50169   42.47494
    3035      444        3     0.00000   18.34002   49.12052   29.78261
    3036      444        4     0.00000   19.23880   49.55164   29.35912
    3037      444        3     0.00000   21.09183   42.96652   49.08818
    3038      444        4     0.00000   20.19147   42.54039   49.51510
    3039      444        3     0.00000    7.94525   42.91158   35.93766
    3040      444        4     0.00000    7.04358   42.48598   36.36037
    3041      444        3     0.00000    5.19265   35.97263   49.09318
    3042      444        4     0.00000    6.08749   36.40480   49.52325
    3043      444        3     0.00000    7.92712   35.93372   42.93603
    3044      444        4     0.00000    7.01571   36.35222   42.52725
    3045      444        3     0.00000    5.20947   42.91605   29.78472
    3046      444        4     0.00000    6.11115   42.49176   29.35990
    3047      444        3     0.00000   18.37629   42.98019   42.94759
    3048      444        4     0.00000   19.28428   42.56510   42.53172
    3049      444        3     0.00000   16.64471   29.77184   31.46294
    3050      444        4     0.00000   16.22463   29.33835   32.36251
    3051      444        3     0.00000   16.65181   42.97230   44.65131
    3052      444        4     0.00000   16.22726   42.55038   45.55325
    3053      444        3     0.00000    9.66133   42.91815   34.22422
    3054      444        4     0.00000   10.08693   42.49649   33.32175
    3055      444        3     0.00000    9.65896   49.07846   31.49632
    3056      444        4     0.00000   10.08299   49.50090   32.39905
    3057      444        3     0.00000   16.65417   49.04323   47.35187
    3058      444        4     0.00000   16.24014   49.45832   46.44099
    3059      444        3     0.00000   16.63919   35.93582   34.21344
    3060      444        4     0.00000   16.22331   36.36353   33.30914
    3061      444        3     0.00000    3.49787   34.23894   49.07977
    3062      444        4     0.00000    3.09041   33.32386   49.49013
    3063      444        3     0.00000    3.48788   31.50815   42.92919
    3064      444        4     0.00000    3.07411   32.41272   42.50017
    3065      444        3     0.00000   22.81106   47.37605   42.89817
    3066      444        4     0.00000   23.22983   46.47017   42.47757
    3067      444        3     0.00000   22.79976   34.21896   29.78840
    3068      444        4     0.00000   23.22851   33.31807   29.36621
    3069      444        3     0.00000   22.82368   31.49816   35.95212
    3070      444        4     0.00000   23.25927   32.39458   36.37430
    3071      444        3     0.00000   22.82000   44.66840   49.09975
    3072      444        4     0.00000   23.25506   45.55930   49.53376
    3073      193        5     0.00000   14.15814   45.11950   39.56960
    3074      193        6     0.00000   14.99252   44.83585   39.11824
    3075      193        6     0.00000   13.85793   45.91392   39.05988
    3076      194        5     0.00000    5.77125   37.40321   39.12980
    3077      194        6     0.00000    5.08697   36.90348   38.61745
    3078      194        6     0.00000    6.41004   37.72287   38.44421
    3079      195        5     0.00000   12.57324   38.26414   37.08513
    3080      195        6     0.00000   12.36083   38.33775   38.04937
    3081      195        6     0.00000   12.71940   37.29596   36.93608
    3082      196        5     0.00000   23.10496   43.56589   35.33882
    3083      196        6     0.00000   22.53004   44.01777   34.67111
    3084      196        6     0.00000   23.15438   42.62688   35.02889
    3085      197        5     0.00000   22.78215   29.58467   49.87892
    3086      197        6     0.00000   22.14493   30.33860   49.80427
    3087      197        6     0.00000   22.50034   29.10097   50.69569
    3088      198        5     0.00000   19.38181   46.81954   44.70021
    3089      198        6     0.00000   20.23064   46.35924   44.91997
    3090      198        6     0.00000   18.67466   46.19704   45.00515
    3091      199        5     0.00000   25.54185   43.29223   52.43858
    3092      199        6     0.00000   24.58628   43.50858   52.58342
    3093      199        6     0.00000   25.60862   43.09822   51.46987
    3094      200        5     0.00000   24.45143   38.91924   33.17244
    3095      200        6     0.00000   24.78528   39.78831   32.83464
    3096      200        6     0.00000   25.26819   38.41740   33.42007
    3097      201        5     0.00000    5.12062   34.38904   44.33402
    3098      201        6     0.00000    4.87719   35.30807   44.61109
    3099      201        6     0.00000    5.60011   34.01365   45.11451
    3100      202        5     0.00000   25.79158   28.42116   28.68246
    3101      202        6     0.00000   26.56760   28.56259   29.28104
    3102      202        6     0.00000   25.00190   28.59309   29.25502
    3103      203        5     0.00000    3.83435   36.90217   41.91895
    3104      203        6     0.00000    4.36405   36.09486   41.69866
    3105      203        6     0.00000    2.96370   36.75732   41.47048
    3106      204        5     0.00000   20.47538   27.80182   27.51765
    3107      204        6     0.00000   21.15598   28.51422   27.41539
    3108      204        6     0.00000   19.67938   28.14961   27.04263
    3109      205        5     0.00000   13.46519   28.91248   26.52370
    3110      205        6     0.00000   12.93023   29.72688   26.70062
    3111      205        6     0.00000   14.40235   29.23162   26.49873
    3112      206        5     0.00000   12.21993   48.78482   38.07119
    3113      206        6     0.00000   13.01172   48.68309   37.48523
    3114      206        6     0.00000   11.50280   49.10264   37.46683
    3115      207        5     0.00000    5.64901   38.14637   26.55919
    3116      207        6     0.00000    5.28965   38.74784   25.85941
    3117      207        6     0.00000    5.05911   37.35143   26.53106
    3118      208        5     0.00000   19.95988   45.81744   33.65535
    3119      208        6     0.00000   20.53164   45.71834   34.45765
    3120      208        6     0.00000   19.03428   45.78274   34.00550
    3121      209        5     0.00000   12.58796   50.20542   43.65053
    3122      209        6     0.00000   12.74043   51.14784   43.38765
    3123      209        6     0.00000   12.98859   50.13129   44.55300
    3124      210        5     0.00000   21.58736   35.04966   35.30334
    3125      210        6     0.00000   22.47694   34.69503   35.55491
    3126      210        6     0.00000   21.03663   34.24393   35.13641
    3127      211        5     0.00000   16.35344   51.98853   28.04919
    3128      211        6     0.00000   15.50671   51.95225   28.56128
    3129      211        6     0.00000   17.04192   52.21855   28.72295
    3130      212        5     0.00000   15.92758   39.74757   48.53640
    3131      212        6     0.00000   15.92206   38.79358   48.27089
    3132      212        6     0.00000   14.97359   40.01334   48.52720
    3133      213        5     0.00000    9.98914   43.59717   29.67746
    3134      213        6     0.00000   10.23572   43.85058   28.75239
    3135      213        6     0.00000    9.07695   43.96283   29.79996
    3136      214        5     0.00000   16.20202   36.44265   39.81224
    3137      214        6     0.00000   15.75118   35.61932   40.12664
    3138      214        6     0.00000   16.98119   36.11695   39.29568
    3139      215        5     0.00000    3.31674   28.10545   27.83941
    3140      215        6     0.00000    2.60487   27.43458   27.68458
    3141      215        6     0.00000    3.81253   27.76397   28.62568
    3142      216        5     0.00000   11.02515   34.75576   50.75116
    3143      216        6     0.00000   11.81273   34.16454   50.64653
    3144      216        6     0.00000   10.94181   34.88772   51.72907
    3145      217        5     0.00000   15.17048   51.58685   48.91705
    3146      217        6     0.00000   15.38263   51.76981   47.96727
    3147      217        6     0.00000   15.39945   52.42701   49.38787
    3148      218        5     0.00000   10.64239   30.72714   41.82405
    3149      218        6     0.00000   11.46389   31.23739   41.61112
    3150      218        6     0.00000   10.79802   29.83098   41.43341
    3151      219        5     0.00000   24.76557   48.86237   48.67468
    3152      219        6     0.00000   25.57445   49.24670   48.25249
    3153      219        6     0.00000   24.01295   49.36447   48.27247
    3154      220        5     0.00000   11.51673   29.76369   35.88824
    3155      220        6     0.00000   12.24622   30.04733   35.28204
    3156      220        6     0.00000   11.88055   29.90880   36.79754
    3157      221        5     0.00000   16.95491   40.15293   41.62558
    3158      221        6     0.00000   17.24144   39.68185   42.44786
    3159      221        6     0.00000   17.72172   40.05855   41.00597
    3160      222        5     0.00000    9.23362   42.10638   48.52851
    3161      222        6     0.00000    9.68183   42.86873   48.08267
    3162      222        6     0.00000    9.32905   42.29355   49.49617
    3163      223        5     0.00000    1.46345   33.31702   52.08054
    3164      223        6     0.00000    0.69689   33.91849   52.25588
    3165      223        6     0.00000    1.26550   32.91613   51.19700
    3166      224        5     0.00000   21.43910   47.74882   30.66247
    3167      224        6     0.00000   20.76034   47.05928   30.45217
    3168      224        6     0.00000   21.91649   47.89498   29.80732
    3169      225        5     0.00000    6.92923   31.85909   32.80835
    3170      225        6     0.00000    6.13770   31.70846   32.23212
    3171      225        6     0.00000    7.59773   32.27497   32.20741
    3172      226        5     0.00000   12.06930   36.70606   30.44270
    3173      226        6     0.00000   12.57087   37.06331   29.66721
    3174      226        6     0.00000   12.70284   36.08409   30.88040
    3175      227        5     0.00000    0.39300   50.84001   45.87501
    3176      227        6     0.00000    1.05704   50.67361   46.59031
    3177      227        6     0.00000   -0.01236   51.71172   46.11161
    3178      228        5     0.00000   11.88555   51.39311   28.25266
    3179      228        6     0.00000   11.59717   52.26061   27.87175
    3180      228        6     0.00000   12.81667   51.28033   27.93536
    3181      229        5     0.00000   22.44040   26.82365   38.41135
    3182      229        6     0.00000   22.77189   25.89805   38.53018
    3183      229        6     0.00000   23.02347   27.37254   38.99389
    3184      230        5     0.00000    3.41822   49.59344   28.33625
    3185      230        6     0.00000    3.00681   49.14865   29.11937
    3186      230        6     0.00000    4.36905   49.31820   28.36570
    3187      231        5     0.00000    3.33830   41.34140   42.01648
    3188      231        6     0.00000    3.27547   42.32904   41.98020
    3189      231        6     0.00000    4.30307   41.15870   42.14345
    3190      232        5     0.00000   25.01294   50.10447   51.71592
    3191      232        6     0.00000   24.75216   49.15732   51.84105
    3192      232        6     0.00000   25.73612   50.07635   51.04032
    3193      233        5     0.00000   25.56840   36.91952   50.56688
    3194      233        6     0.00000   24.71431   36.84722   51.06241
    3195      233        6     0.00000   25.56709   36.14139   49.95463
    3196      234        5     0.00000   24.18198   35.09724   39.89583
    3197      234        6     0.00000   24.60127   35.66453   40.59062
    3198      234        6     0.00000   23.22247   35.34066   39.92238
    3199      235        5     0.00000    0.38485   38.90872   44.13160
    3200      235        6     0.00000   -0.29758   38.72602   43.43786
    3201      235        6     0.00000   -0.12907   38.96971   44.97571
    3202      236        5     0.00000    2.97185   40.73915   26.62123
    3203      236        6     0.00000    2.24630   40.20445   27.03185
    3204      236        6     0.00000    3.72578   40.66554   27.25924
    3205      237        5     0.00000   26.36519   42.55249   29.66432
    3206      237        6     0.00000   25.66461   42.18078   30.25685
    3207      237        6     0.00000   25.96009   43.37162   29.28288
    3208      238        5     0.00000   17.96541   52.25088   40.39662
    3209      238        6     0.00000   18.07030   52.29925   41.38005
    3210      238        6     0.00000   17.09187   51.80451   40.26150
    3211      239        5     0.00000   16.65154   29.58992   43.71625
    3212      239        6     0.00000   16.29561   30.50974   43.62792
    3213      239        6     0.00000   16.90759   29.33178   42.79539
    3214      240        5     0.00000   24.90358   42.84455   40.65029
    3215      240        6     0.00000   25.48980   42.08482   40.40477
    3216      240        6     0.00000   24.16016   42.80590   39.99730
    3217      241        5     0.00000    8.12322   46.78142   45.22045
    3218      241        6     0.00000    8.52806   46.13737   45.85451
    3219      241        6     0.00000    8.89635   47.19677   44.76198
    3220      242        5     0.00000   15.52826   26.79315   34.94451
    3221      242        6     0.00000   14.61949   26.50583   35.21264
    3222      242        6     0.00000   15.70755   26.29763   34.10618
    3223      243        5     0.00000    8.73231   47.55507   34.34961
    3224      243        6     0.00000    8.08458   47.84056   35.04177
    3225      243        6     0.00000    8.34772   46.72227   33.97685
    3226      244        5     0.00000   23.35917   52.33264   26.89620
    3227      244        6     0.00000   22.58630   52.51218   26.30367
    3228      244        6     0.00000   23.19434   52.89020   27.69746
    3229      245        5     0.00000   19.83816   34.39430   45.75383
    3230      245        6     0.00000   19.45278   34.55492   46.65130
    3231      245        6     0.00000   20.24563   35.25838   45.49726
    3232      246        5     0.00000    1.41376   39.48075   38.97260
    3233      246        6     0.00000    1.51024   38.67450   38.40583
    3234      246        6     0.00000    1.47501   40.23863   38.33827
    3235      247        5     0.00000   18.17493   39.78989   28.68378
    3236      247        6     0.00000   19.10210   39.52202   28.46270
    3237      247        6     0.00000   17.92230   40.42501   27.96743
    3238      248        5     0.00000   13.24884   37.37640   42.21390
    3239      248        6     0.00000   13.29668   36.60616   41.59350
    3240      248        6     0.00000   14.10714   37.35195   42.70680
    3241      249        5     0.00000    5.39401   27.42222   50.78191
    3242      249        6     0.00000    5.22998   28.27185   51.26351
    3243      249        6     0.00000    5.97498   26.90041   51.39048
    3244      250        5     0.00000   23.81079   38.92502   40.05408
    3245      250        6     0.00000   24.62677   38.44158   39.76912
    3246      250        6     0.00000   24.00611   39.87638   39.86192
    3247      251        5     0.00000   25.83338   27.62779   36.70395
    3248      251        6     0.00000   25.39832   27.35703   35.85670
    3249      251        6     0.00000   25.36703   27.10204   37.40137
    3250      252        5     0.00000   19.22014   31.51577   45.69862
    3251      252        6     0.00000   18.94911   31.78444   46.61318
    3252      252        6     0.00000   18.39391   31.60726   45.16025
    3253      253        5     0.00000   12.96808   36.22105   48.44387
    3254      253        6     0.00000   12.45337   36.64376   47.71122
    3255      253        6     0.00000   13.91524   36.32988   48.17652
    3256      254        5     0.00000   13.02381   34.05492   39.13506
    3257      254        6     0.00000   12.78328   35.01180   39.21760
    3258      254        6     0.00000   12.37661   33.69162   38.47918
    3259      255        5     0.00000   17.99670   34.61170   30.26316
    3260      255        6     0.00000   17.67704   34.17006   31.08938
    3261      255        6     0.00000   17.64365   35.53493   30.32125
    3262      256        5     0.00000    2.22527   39.50730   47.99776
    3263      256        6     0.00000    2.41402   40.20892   48.67047
    3264      256        6     0.00000    1.55072   39.91423   47.39787
    3265      444        1     0.00000   34.57306    6.44132   24.94932
    3266      444        1     0.00000   34.56754   19.55951   11.82035
    3267      444        1     0.00000   47.74172    6.46656   11.83297
    3268      444        1     0.00000   47.73830   19.60499   24.98744
    3269      444        1     0.00000   44.28013   19.83659   24.97719
    3270      444        1     0.00000   44.26777    6.69369   11.82719
    3271      444        1     0.00000   31.16562   19.86866   11.81352
    3272      444        1     0.00000   31.15984    6.72681   24.95353
    3273      444        1     0.00000   44.27172    6.45499    1.29520
    3274      444        1     0.00000   44.29327   19.60499   14.45808
    3275      444        1     0.00000   31.16089    6.41530   14.46702
    3276      444        1     0.00000   31.15405   19.56503    1.32333
    3277      444        1     0.00000   34.56727   19.85683    1.32070
    3278      444        1     0.00000   34.54835    6.72287   14.46571
    3279      444        1     0.00000   47.72542   19.86866   14.44073
    3280      444        1     0.00000   47.72936    6.70394    1.31071
    3281      444        1     0.00000   51.26114    8.28647    6.43502
    3282      444        1     0.00000   51.27323   21.42201   19.54006
    3283      444        1     0.00000   38.13139    8.26754   19.53296
    3284      444        1     0.00000   38.11588   21.41964    6.42739
    3285      444        1     0.00000   51.26955   18.04217   19.87365
    3286      444        1     0.00000   51.26167    4.85564    6.71051
    3287      444        1     0.00000   38.11982   18.01089    6.71814
    3288      444        1     0.00000   38.13875    4.90243   19.86182
    3289      444        1     0.00000   27.61044   18.00747    6.43580
    3290      444        1     0.00000   27.59020    4.90217   19.56871
    3291      444        1     0.00000   40.73888   18.03481   19.55084
    3292      444        1     0.00000   40.74914    4.83776    6.41214
    3293      444        1     0.00000   27.60177    8.29856   19.86971
    3294      444        1     0.00000   27.61334   21.43068    6.70473
    3295      444        1     0.00000   40.75492    8.28121    6.68054
    3296      444        1     0.00000   40.73783   21.41333   19.87628
    3297      444        1     0.00000   32.71739   24.98034    8.26860
    3298      444        1     0.00000   32.70478   11.84033   21.41780
    3299      444        1     0.00000   45.87685   24.93381   21.41360
    3300      444        1     0.00000   45.86345   11.81851    8.29620
    3301      444        1     0.00000   46.15682   24.96562   17.99223
    3302      444        1     0.00000   46.13605   11.81773    4.86405
    3303      444        1     0.00000   33.01603   24.96772    4.86904
    3304      444        1     0.00000   33.01340   11.81641   18.02351
    3305      444        1     0.00000   32.67586    1.33201   18.04691
    3306      444        1     0.00000   32.72029   14.45519    4.87141
    3307      444        1     0.00000   45.89946    1.34515    4.83408
    3308      444        1     0.00000   45.87738   14.51697   18.02640
    3309      444        1     0.00000   46.12580    1.33700    8.30540
    3310      444        1     0.00000   46.14289   14.51749   21.41912
    3311      444        1     0.00000   33.04941    1.34068   21.38600
    3312      444        1     0.00000   33.01944   14.44783    8.27780
    3313      444        1     0.00000   32.72817    8.28043    1.30809
    3314      444        1     0.00000   32.71503   21.41675   14.44888
    3315      444        1     0.00000   45.89026    8.33116   14.46334
    3316      444        1     0.00000   45.87896   21.45382    1.32912
    3317      444        1     0.00000   46.12501   17.99354    1.33569
    3318      444        1     0.00000   46.11502    4.86326   14.48200
    3319      444        1     0.00000   33.01208   18.01878   14.45835
    3320      444        1     0.00000   33.00472    4.85669    1.29047
    3321      444        1     0.00000   32.71161   18.01273   24.96746
    3322      444        1     0.00000   32.69426    4.86878   11.83718
    3323      444        1     0.00000   45.86687   18.00853   11.82167
    3324      444        1     0.00000   45.89210    4.86063   24.94327
    3325      444        1     0.00000   46.12922    8.31513   24.95984
    3326      444        1     0.00000   46.13106   21.44435   11.80195
    3327      444        1     0.00000   33.02049    8.25387   11.82377
    3328      444        1     0.00000   33.00472   21.42043   24.97456
    3329      444        1     0.00000   34.54440   24.99348   19.89784
    3330      444        1     0.00000   34.57463   11.80852    6.71840
    3331      444        1     0.00000   47.73383   24.98218    6.68028
    3332      444        1     0.00000   47.72121   11.87188   19.87181
    3333      444        1     0.00000   44.27172   24.99532    6.44290
    3334      444        1     0.00000   44.29248   11.87293   19.57160
    3335      444        1     0.00000   31.20163   24.98218   19.53927
    3336      444        1     0.00000   31.16483   11.81168    6.42266
    3337      444        1     0.00000   44.28985    1.28732   19.85972
    3338      444        1     0.00000   44.29301   14.46255    6.71183
    3339      444        1     0.00000   31.17245    1.33017    6.71288
    3340      444        1     0.00000   31.17535   14.47359   19.85446
    3341      444        1     0.00000   34.57017    1.32333    6.40531
    3342      444        1     0.00000   34.56885   14.45125   19.54453
    3343      444        1     0.00000   47.71044    1.31650   19.58685
    3344      444        1     0.00000   47.72411   14.45703    6.44684
    3345      444        1     0.00000   51.24064    6.44579   18.02404
    3346      444        1     0.00000   51.25746   19.57791    4.85774
    3347      444        1     0.00000   38.10720    6.43896    4.83145
    3348      444        1     0.00000   38.09958   19.56188   18.02482
    3349      444        1     0.00000   51.25851   19.86393    8.28043
    3350      444        1     0.00000   51.25247    6.75757   21.42727
    3351      444        1     0.00000   38.09748   19.88233   21.40045
    3352      444        1     0.00000   38.11930    6.68370    8.27596
    3353      444        1     0.00000   27.61754    6.43580    8.27254
    3354      444        1     0.00000   27.62043   19.57029   21.39546
    3355      444        1     0.00000   40.77674    6.41898   21.38047
    3356      444        1     0.00000   40.75466   19.57423    8.28174
    3357      444        1     0.00000   27.61912   19.89547   18.01773
    3358      444        1     0.00000   27.61071    6.70683    4.84854
    3359      444        1     0.00000   40.75807   19.86603    4.86668
    3360      444        1     0.00000   40.77253    6.76072   18.00905
    3361      444        1     0.00000   44.31667   19.88995    1.32885
    3362      444        1     0.00000   44.32271    6.77097   14.46728
    3363      444        1     0.00000   31.14774   19.85814   14.45388
    3364      444        1     0.00000   31.16378    6.71814    1.30204
    3365      444        1     0.00000   34.56833    6.42003    1.29573
    3366      444        1     0.00000   34.57779   19.57923   14.45861
    3367      444        1     0.00000   47.68494    6.42319   14.47464
    3368      444        1     0.00000   47.68625   19.55951    1.33595
    3369      444        1     0.00000   34.56833   19.85788   24.96825
    3370      444        1     0.00000   34.57779    6.68528   11.82798
    3371      444        1     0.00000   47.69282   19.88022   11.80432
    3372      444        1     0.00000   47.69861    6.75599   24.96036
    3373      444        1     0.00000   44.32350    6.41740   24.94301
    3374      444        1     0.00000   44.30168   19.57003   11.81957
    3375      444        1     0.00000   31.13618    6.43843   11.82693
    3376      444        1     0.00000   31.14748   19.57502   24.96982
    3377      444        1     0.00000   27.61991   18.00747   19.83396
    3378      444        1     0.00000   27.61386    4.86904    6.71209
    3379      444        1     0.00000   40.75729   18.01326    6.71630
    3380      444        1     0.00000   40.77910    4.86063   19.81319
    3381      444        1     0.00000   27.61281    8.27228    6.40899
    3382      444        1     0.00000   27.62411   21.45724   19.58081
    3383      444        1     0.00000   40.76806    8.31723   19.57923
    3384      444        1     0.00000   40.75413   21.42779    6.43186
    3385      444        1     0.00000   51.24879    8.31618   19.85841
    3386      444        1     0.00000   51.26114   21.42227    6.71235
    3387      444        1     0.00000   38.11719    8.25309    6.72024
    3388      444        1     0.00000   38.09616   21.44882   19.84000
    3389      444        1     0.00000   51.25799   18.01878    6.42555
    3390      444        1     0.00000   51.24116    4.89034   19.59500
    3391      444        1     0.00000   38.10142   17.99670   19.58738
    3392      444        1     0.00000   38.11325    4.86983    6.38796
    3393      444        1     0.00000   46.14736    1.31702   18.02325
    3394      444        1     0.00000   46.16155   14.45677    4.88324
    3395      444        1     0.00000   33.00446    1.31808    4.84407
    3396      444        1     0.00000   33.00314   14.45256   17.98382
    3397      444        1     0.00000   32.73711    1.33411    8.27464
    3398      444        1     0.00000   32.73895   14.47727   21.41649
    3399      444        1     0.00000   45.85188    1.28732   21.42464
    3400      444        1     0.00000   45.85346   14.46045    8.27806
    3401      444        1     0.00000   46.17128   24.98612    8.24573
    3402      444        1     0.00000   46.16076   11.87792   21.43936
    3403      444        1     0.00000   32.98527   24.99033   21.45540
    3404      444        1     0.00000   33.01156   11.80563    8.28095
    3405      444        1     0.00000   32.76392   24.98192   17.97935
    3406      444        1     0.00000   32.72817   11.81510    4.85984
    3407      444        1     0.00000   45.83374   24.99638    4.87903
    3408      444        1     0.00000   45.85477   11.87950   18.00458
    3409      444        1     0.00000   46.18022   18.03613   24.98533
    3410      444        1     0.00000   46.17864    4.90217   11.84138
    3411      444        1     0.00000   33.00130   17.99985   11.81878
    3412      444        1     0.00000   33.01182    4.87535   24.94143
    3413      444        1     0.00000   32.72160    8.29173   24.96036
    3414      444        1     0.00000   32.73369   21.42674   11.81089
    3415      444        1     0.00000   45.83164    8.25966   11.82193
    3416      444        1     0.00000   45.83874   21.40519   24.97955
    3417      444        1     0.00000   46.16523    8.26570    1.31150
    3418      444        1     0.00000   46.16471   21.43463   14.44257
    3419      444        1     0.00000   32.98816    8.28989   14.46334
    3420      444        1     0.00000   33.00341   21.41833    1.32570
    3421      444        1     0.00000   32.71845   18.00301    1.31992
    3422      444        1     0.00000   32.72081    4.84907   14.47622
    3423      444        1     0.00000   45.85556   18.04112   14.45913
    3424      444        1     0.00000   45.83821    4.89507    1.29284
    3425      444        1     0.00000   44.33270    1.34436    6.39506
    3426      444        1     0.00000   44.30957   14.51250   19.58396
    3427      444        1     0.00000   31.12303    1.33280   19.61051
    3428      444        1     0.00000   31.15773   14.45256    6.43475
    3429      444        1     0.00000   34.60408    1.34279   19.81871
    3430      444        1     0.00000   34.58147   14.45046    6.71393
    3431      444        1     0.00000   47.69230    1.33306    6.74600
    3432      444        1     0.00000   47.70991   14.50987   19.85919
    3433      444        1     0.00000   34.58147   24.97035    6.43002
    3434      444        1     0.00000   34.57621   11.81431   19.58580
    3435      444        1     0.00000   47.71964   24.96273   19.55636
    3436      444        1     0.00000   47.69808   11.81483    6.42844
    3437      444        1     0.00000   44.31535   24.93539   19.84868
    3438      444        1     0.00000   44.30352   11.82430    6.72970
    3439      444        1     0.00000   31.15326   24.97876    6.70552
    3440      444        1     0.00000   31.14249   11.83797   19.85367
    3441      444        1     0.00000   27.61123   19.87208    8.27333
    3442      444        1     0.00000   27.60045    6.73496   21.43331
    3443      444        1     0.00000   40.73599   19.84552   21.43568
    3444      444        1     0.00000   40.75492    6.71340    8.23863
    3445      444        1     0.00000   27.59599    6.46157   18.00143
    3446      444        1     0.00000   27.61097   19.56556    4.86799
    3447      444        1     0.00000   40.74440    6.40505    4.85353
    3448      444        1     0.00000   40.73941   19.60052   17.99012
    3449      444        1     0.00000   51.26719   19.85473   17.98382
    3450      444        1     0.00000   51.25851    6.72129    4.87325
    3451      444        1     0.00000   38.11982   19.85788    4.86274
    3452      444        1     0.00000   38.13218    6.70999   17.96541
    3453      444        1     0.00000   51.26824    6.42135    8.27070
    3454      444        1     0.00000   51.27218   19.60998   21.43095
    3455      444        1     0.00000   38.13901    6.46367   21.42806
    3456      444        1     0.00000   38.11614   19.57266    8.28332
    3457      444        2     0.00000   33.61960    7.32959   -0.01551
    3458      444        2     0.00000   33.61933   20.46644   13.13475
    3459      444        2     0.00000   46.76092    7.34431   13.14842
    3460      444        2     0.00000   46.75487   20.47486    0.01367
    3461      444        2     0.00000   45.25068   18.96409    0.01236
    3462      444        2     0.00000   45.25278    5.83907   13.15447
    3463      444        2     0.00000   32.10725   18.96146   13.13633
    3464      444        2     0.00000   32.11093    5.82040   -0.02182
    3465      444        2     0.00000   45.24831    7.33774   -0.01682
    3466      444        2     0.00000   45.24542   20.49010   13.13107
    3467      444        2     0.00000   32.10305    7.32276   13.14526
    3468      444        2     0.00000   32.10462   20.46828    0.00447
    3469      444        2     0.00000   33.61355   18.96041    0.00000
    3470      444        2     0.00000   33.60724    5.81015   13.15131
    3471      444        2     0.00000   46.75382   18.98118   13.13159
    3472      444        2     0.00000   46.75987    5.83302   -0.01682
    3473      444        2     0.00000   26.29605    7.32617    7.31960
    3474      444        2     0.00000   26.30341   20.48301   20.45540
    3475      444        2     0.00000   39.45367    7.33459   20.44778
    3476      444        2     0.00000   39.43527   20.47197    7.32933
    3477      444        2     0.00000   26.29973   18.97250   18.95016
    3478      444        2     0.00000   26.29237    5.81515    5.81304
    3479      444        2     0.00000   39.43868   18.96514    5.81935
    3480      444        2     0.00000   39.45551    5.83197   18.93596
    3481      444        2     0.00000   26.29027   18.96830    7.32591
    3482      444        2     0.00000   26.27765    5.85432   20.47249
    3483      444        2     0.00000   39.41897   18.97066   20.46276
    3484      444        2     0.00000   39.43422    5.80463    7.30041
    3485      444        2     0.00000   26.27765    7.35930   18.96067
    3486      444        2     0.00000   26.29132   20.47223    5.81304
    3487      444        2     0.00000   39.43106    7.31803    5.79753
    3488      444        2     0.00000   39.41871   20.48143   18.95673
    3489      444        2     0.00000   33.62590    0.00815    7.31908
    3490      444        2     0.00000   33.62222   13.14579   20.46644
    3491      444        2     0.00000   46.76486   -0.01814   20.47039
    3492      444        2     0.00000   46.76118   13.13790    7.33879
    3493      444        2     0.00000   45.25725   -0.01709   18.96094
    3494      444        2     0.00000   45.25436   13.14027    5.82855
    3495      444        2     0.00000   32.11619    0.00473    5.81225
    3496      444        2     0.00000   32.11251   13.14526   18.95778
    3497      444        2     0.00000   33.62038    0.01840   18.96225
    3498      444        2     0.00000   33.62249   13.13238    5.81909
    3499      444        2     0.00000   46.76197    0.02024    5.81252
    3500      444        2     0.00000   46.78352   13.17996   18.94884
    3501      444        2     0.00000   45.25383    0.02156    7.31803
    3502      444        2     0.00000   45.23412   13.17918   20.49457
    3503      444        2     0.00000   32.11382    0.01735   20.47407
    3504      444        2     0.00000   32.11435   13.12949    7.32775
    3505      444        3     0.00000   34.80071    4.66374   23.35154
    3506      444        3     0.00000   34.10566    5.34801   24.47325
    3507      444        3     0.00000   34.78862   17.77982   10.22704
    3508      444        3     0.00000   34.09672   18.46725   11.34822
    3509      444        3     0.00000   44.07245   21.61707   23.37441
    3510      444        3     0.00000   44.75016   20.93043   24.50374
    3511      444        3     0.00000   44.05852    8.48048   10.22336
    3512      444        3     0.00000   44.73885    7.78648   11.35033
    3513      444        3     0.00000   30.93402    8.51859   23.37283
    3514      444        3     0.00000   31.62750    7.82407   24.48849
    3515      444        3     0.00000   44.06614    4.66242    2.88667
    3516      444        3     0.00000   44.74411    5.36115    1.76497
    3517      444        3     0.00000   44.08980   17.83240   16.06690
    3518      444        3     0.00000   44.76698   18.51483   14.93494
    3519      444        3     0.00000   30.93008    4.64770   16.07321
    3520      444        3     0.00000   31.62776    5.32383   14.94599
    3521      444        3     0.00000   34.78809   21.63678    2.91796
    3522      444        3     0.00000   34.09777   20.94883    1.79546
    3523      444        3     0.00000   34.77784    8.50308   16.05297
    3524      444        3     0.00000   34.08147    7.81855   14.93416
    3525      444        3     0.00000   49.65679    8.49336    4.65795
    3526      444        3     0.00000   50.78507    7.81303    5.34486
    3527      444        3     0.00000   36.52809    8.49546   17.76589
    3528      444        3     0.00000   37.65794    7.80120   18.44017
    3529      444        3     0.00000   49.67414   17.82872   21.64940
    3530      444        3     0.00000   50.79848   18.51588   20.96486
    3531      444        3     0.00000   49.67414    4.64323    8.50545
    3532      444        3     0.00000   50.79453    5.32698    7.80567
    3533      444        3     0.00000   36.52257   17.78639    8.49783
    3534      444        3     0.00000   37.64559   18.47908    7.81145
    3535      444        3     0.00000   29.20717   17.78482    4.65348
    3536      444        3     0.00000   28.08363   18.47408    5.34144
    3537      444        3     0.00000   42.35007   17.82740   17.78876
    3538      444        3     0.00000   41.21522   18.50931   18.46252
    3539      444        3     0.00000   42.33982    4.63245    4.62089
    3540      444        3     0.00000   41.21759    5.31094    5.31831
    3541      444        3     0.00000   29.19771    8.51623   21.64703
    3542      444        3     0.00000   28.07390    7.82749   20.96171
    3543      444        3     0.00000   42.34586    8.49047    8.47312
    3544      444        3     0.00000   41.22679    7.80751    7.77333
    3545      444        3     0.00000   30.93902   23.38440    8.48941
    3546      444        3     0.00000   31.62408   24.50795    7.79936
    3547      444        3     0.00000   30.91904   10.25728   21.64809
    3548      444        3     0.00000   31.60936   11.37215   20.95146
    3549      444        3     0.00000   47.94782   23.38046   17.76536
    3550      444        3     0.00000   47.25303   24.49638   18.45936
    3551      444        3     0.00000   47.91864   10.21784    4.65059
    3552      444        3     0.00000   47.22779   11.34270    5.33513
    3553      444        3     0.00000   34.79151   23.36758    4.65164
    3554      444        3     0.00000   34.10829   24.49454    5.33934
    3555      444        3     0.00000   30.90484    2.92532   17.81610
    3556      444        3     0.00000   31.58517    1.80388   18.51615
    3557      444        3     0.00000   30.93823   16.05165    4.65322
    3558      444        3     0.00000   31.62697   14.92706    5.34170
    3559      444        3     0.00000   47.92705    2.92453    8.52385
    3560      444        3     0.00000   47.22385    1.80519    7.83905
    3561      444        3     0.00000   47.93047   16.10791   21.63757
    3562      444        3     0.00000   47.23725   14.98647   20.94856
    3563      444        3     0.00000   34.79545   16.04929    8.49493
    3564      444        3     0.00000   34.11118   14.92259    7.80698
    3565      444        3     0.00000   30.94690    8.49231    2.90376
    3566      444        3     0.00000   31.63486    7.80856    1.77864
    3567      444        3     0.00000   30.94270   21.64730   16.04745
    3568      444        3     0.00000   31.62171   20.95119   14.92338
    3569      444        3     0.00000   47.91390   17.78508    2.93031
    3570      444        3     0.00000   47.21806   18.46646    1.80782
    3571      444        3     0.00000   47.89918    4.66032   16.08662
    3572      444        3     0.00000   47.20939    5.33513   14.95466
    3573      444        3     0.00000   34.78625    4.63745    2.88378
    3574      444        3     0.00000   34.09777    5.32540    1.76339
    3575      444        3     0.00000   30.93744   17.79901   23.36311
    3576      444        3     0.00000   31.61935   18.48407   24.49349
    3577      444        3     0.00000   30.93008    4.65506   10.22836
    3578      444        3     0.00000   31.60621    5.34302   11.35769
    3579      444        3     0.00000   47.92179    8.53700   23.37178
    3580      444        3     0.00000   47.22726    7.84878   24.49060
    3581      444        3     0.00000   47.91522   21.65255   10.20260
    3582      444        3     0.00000   47.22306   20.97144   11.32877
    3583      444        3     0.00000   34.79782    8.46970   10.22915
    3584      444        3     0.00000   34.11144    7.77990   11.35296
    3585      444        3     0.00000   34.77232   23.39229   21.66202
    3586      444        3     0.00000   34.07727   24.51846   20.98773
    3587      444        3     0.00000   34.79361   10.20391    8.49678
    3588      444        3     0.00000   34.10461   11.33219    7.81014
    3589      444        3     0.00000   44.06062   23.40254    4.65138
    3590      444        3     0.00000   44.74095   24.52503    5.34722
    3591      444        3     0.00000   44.07981   10.28619   17.78587
    3592      444        3     0.00000   44.76251   11.40711   18.47566
    3593      444        3     0.00000   30.94480   10.22100    4.63719
    3594      444        3     0.00000   31.63433   11.34218    5.32829
    3595      444        3     0.00000   44.08244    2.89193   21.63152
    3596      444        3     0.00000   44.76093    1.76050   20.95172
    3597      444        3     0.00000   44.07981   16.06164    8.49283
    3598      444        3     0.00000   44.76330   14.93573    7.80488
    3599      444        3     0.00000   30.95164    2.93136    8.48810
    3600      444        3     0.00000   31.64406    1.80624    7.80356
    3601      444        3     0.00000   34.78678    2.91296    4.61984
    3602      444        3     0.00000   34.09856    1.79178    5.31121
    3603      444        3     0.00000   34.79046   16.04535   17.76747
    3604      444        3     0.00000   34.09909   14.92180   18.45121
    3605      444        3     0.00000   49.63445    4.67136   17.81978
    3606      444        3     0.00000   50.76535    5.35747   18.50116
    3607      444        3     0.00000   36.51626    4.64849    4.61379
    3608      444        3     0.00000   37.63796    5.34223    5.29859
    3609      444        3     0.00000   49.65758   21.64283    8.48258
    3610      444        3     0.00000   50.78586   20.95409    7.80461
    3611      444        3     0.00000   36.50417   21.65992   21.63415
    3612      444        3     0.00000   37.62508   20.97643   20.93411
    3613      444        3     0.00000   36.52835    8.47259    8.50124
    3614      444        3     0.00000   37.64822    7.78043    7.81224
    3615      444        3     0.00000   29.21085    4.65401    8.48915
    3616      444        3     0.00000   28.08810    5.34144    7.80277
    3617      444        3     0.00000   42.37320    4.64271   21.60497
    3618      444        3     0.00000   41.25097    5.32856   20.90887
    3619      444        3     0.00000   29.22242   21.66675   17.79112
    3620      444        3     0.00000   28.09519   20.98721   18.48670
    3621      444        3     0.00000   29.21164    8.48863    4.63167
    3622      444        3     0.00000   28.08520    7.80041    5.31699
    3623      444        3     0.00000   42.34560   21.65650    4.64770
    3624      444        3     0.00000   41.22679   20.96066    5.33723
    3625      444        3     0.00000   44.08297   21.67122    2.91822
    3626      444        3     0.00000   44.78275   20.98432    1.79914
    3627      444        3     0.00000   44.10347    8.54567   16.06532
    3628      444        3     0.00000   44.79668    7.86324   14.93889
    3629      444        3     0.00000   34.78967   17.79349   16.05455
    3630      444        3     0.00000   34.10513   18.48697   14.93179
    3631      444        3     0.00000   34.78205   21.64651   23.37757
    3632      444        3     0.00000   34.09725   20.95224   24.49953
    3633      444        3     0.00000   44.10768    4.64376   23.34076
    3634      444        3     0.00000   44.79826    5.32856   24.46773
    3635      444        3     0.00000   44.08139   17.78771   10.22915
    3636      444        3     0.00000   44.77197   18.47592   11.35033
    3637      444        3     0.00000   29.21453   17.79297   21.62259
    3638      444        3     0.00000   28.09178   18.47671   20.92753
    3639      444        3     0.00000   42.34928   17.79218    8.49914
    3640      444        3     0.00000   41.22758   18.48197    7.81092
    3641      444        3     0.00000   42.36532    8.54146   17.79375
    3642      444        3     0.00000   41.24230    7.85272   18.48381
    3643      444        3     0.00000   49.65548    8.53594   21.64546
    3644      444        3     0.00000   50.77902    7.84930   20.95540
    3645      444        3     0.00000   49.65469   17.79796    4.65401
    3646      444        3     0.00000   50.78244   18.48775    5.33381
    3647      444        3     0.00000   36.51416   17.78087   17.79297
    3648      444        3     0.00000   37.63060   18.46699   18.49249
    3649      444        3     0.00000   47.90812    2.93426   17.82214
    3650      444        3     0.00000   47.23410    1.79678   18.50011
    3651      444        3     0.00000   47.93336   16.05560    4.66321
    3652      444        3     0.00000   47.25303   14.92969    5.35379
    3653      444        3     0.00000   30.95427   16.07321   21.62811
    3654      444        3     0.00000   31.64616   14.94940   20.94488
    3655      444        3     0.00000   47.93362   23.37888    8.46444
    3656      444        3     0.00000   47.25986   24.50847    7.77307
    3657      444        3     0.00000   47.92915   10.26753   21.64546
    3658      444        3     0.00000   47.24724   11.40054   20.96434
    3659      444        3     0.00000   30.97372   23.38151   17.77377
    3660      444        3     0.00000   31.67140   24.50716   18.44990
    3661      444        3     0.00000   47.95071   17.82582   23.38466
    3662      444        3     0.00000   47.27038   18.51036   24.51347
    3663      444        3     0.00000   47.95307    4.66584   10.24729
    3664      444        3     0.00000   47.27248    5.36957   11.36715
    3665      444        3     0.00000   30.94822   21.64782   10.21653
    3666      444        3     0.00000   31.63880   20.95961   11.33929
    3667      444        3     0.00000   47.93520    8.48626    2.91664
    3668      444        3     0.00000   47.25644    7.79568    1.78653
    3669      444        3     0.00000   47.94966   21.65361   16.03062
    3670      444        3     0.00000   47.25855   20.96381   14.91155
    3671      444        3     0.00000   30.93849   17.78376    2.92032
    3672      444        3     0.00000   31.62540   18.47198    1.79467
    3673      444        3     0.00000   44.09979    2.93031    4.61616
    3674      444        3     0.00000   44.80299    1.81492    5.30174
    3675      444        3     0.00000   44.10321   16.11580   17.81268
    3676      444        3     0.00000   44.78459   14.98857   18.49774
    3677      444        3     0.00000   34.81780    2.93951   21.61076
    3678      444        3     0.00000   34.13799    1.81544   20.91386
    3679      444        3     0.00000   34.78468   10.21679   17.80138
    3680      444        3     0.00000   34.10329   11.34034   18.49459
    3681      444        3     0.00000   44.09716   23.33209   21.62443
    3682      444        3     0.00000   44.78670   24.45826   20.93963
    3683      444        3     0.00000   44.07561   10.22284    8.50072
    3684      444        3     0.00000   44.77013   11.34849    7.82223
    3685      444        3     0.00000   29.20927   21.65124    8.48889
    3686      444        3     0.00000   28.08468   20.96329    7.80041
    3687      444        3     0.00000   42.34718   21.61707   21.64073
    3688      444        3     0.00000   41.21312   20.93674   20.96434
    3689      444        3     0.00000   29.18667    4.66978   17.79507
    3690      444        3     0.00000   28.06470    5.36799   18.47487
    3691      444        3     0.00000   49.67493   21.64335   17.76589
    3692      444        3     0.00000   50.79716   20.94988   18.45069
    3693      444        3     0.00000   36.52257   21.63678    4.64639
    3694      444        3     0.00000   37.64559   20.94935    5.33355
    3695      444        3     0.00000   36.54228    4.67662   21.63336
    3696      444        3     0.00000   37.66688    5.37114   20.95540
    3697      444        3     0.00000   35.95685    5.22866   22.78583
    3698      444        4     0.00000   36.37483    6.13060   23.21484
    3699      444        3     0.00000   35.94502   18.34133    9.65423
    3700      444        4     0.00000   36.36694   19.24379   10.08010
    3701      444        3     0.00000   42.91342   21.06528   22.80265
    3702      444        4     0.00000   42.47809   20.17360   23.23640
    3703      444        3     0.00000   42.90948    7.92554    9.63294
    3704      444        4     0.00000   42.48098    7.02334   10.05144
    3705      444        3     0.00000   29.79076   21.08920    9.64161
    3706      444        4     0.00000   29.36832   20.18622   10.06485
    3707      444        3     0.00000   42.90238    5.20027    3.46264
    3708      444        4     0.00000   42.46416    6.09564    3.03862
    3709      444        3     0.00000   42.92209   18.37971   16.62867
    3710      444        4     0.00000   42.48125   19.26535   16.18677
    3711      444        3     0.00000   29.78366   18.34343    3.49734
    3712      444        4     0.00000   29.35964   19.24563    3.07384
    3713      444        3     0.00000   35.94739   21.08027    3.48919
    3714      444        4     0.00000   36.37641   20.18411    3.05965
    3715      444        3     0.00000   35.94870    7.95130   16.60607
    3716      444        4     0.00000   36.38298    7.06645   16.16075
    3717      444        3     0.00000   49.07215    9.64424    5.21657
    3718      444        4     0.00000   49.49013   10.06774    6.12166
    3719      444        3     0.00000   49.10028   22.79950   18.32714
    3720      444        4     0.00000   49.52062   23.21931   19.23302
    3721      444        3     0.00000   35.94739    9.64056   18.34527
    3722      444        4     0.00000   36.37536   10.05722   19.24826
    3723      444        3     0.00000   49.08871   16.68099   21.08184
    3724      444        4     0.00000   49.51116   16.25591   20.17964
    3725      444        3     0.00000   49.08608    3.48893    7.95603
    3726      444        4     0.00000   49.50432    3.05833    7.05436
    3727      444        3     0.00000   35.97263    3.52258   21.06265
    3728      444        4     0.00000   36.40112    3.10486   20.15940
    3729      444        3     0.00000   29.78209   16.62789    5.21158
    3730      444        4     0.00000   29.35649   16.20281    6.11220
    3731      444        3     0.00000   29.74923    3.51075   18.36315
    3732      444        4     0.00000   29.31469    3.09119   19.26193
    3733      444        3     0.00000   29.76421    9.67815   21.09157
    3734      444        4     0.00000   29.33572   10.10375   20.19305
    3735      444        3     0.00000   29.78156   22.80949    7.93316
    3736      444        4     0.00000   29.35254   23.23771    7.03543
    3737      444        3     0.00000   31.50342   22.80554    9.64161
    3738      444        4     0.00000   32.40562   23.22983   10.06485
    3739      444        3     0.00000   44.64421   22.76374   22.78951
    3740      444        4     0.00000   45.54536   23.18803   23.21511
    3741      444        3     0.00000   44.62082    9.64266    9.66054
    3742      444        4     0.00000   45.51461   10.06984   10.09823
    3743      444        3     0.00000   47.39419   22.81185   16.60423
    3744      444        4     0.00000   46.49515   23.24087   16.17705
    3745      444        3     0.00000   47.37001    9.64214    3.48946
    3746      444        4     0.00000   46.47254   10.06853    3.05781
    3747      444        3     0.00000   34.22947   22.79135    3.49708
    3748      444        4     0.00000   33.32701   23.21511    3.07463
    3749      444        3     0.00000   31.47477    3.49077   16.65943
    3750      444        4     0.00000   32.37407    3.05728   16.24040
    3751      444        3     0.00000   44.64895    3.51942    3.46501
    3752      444        4     0.00000   45.56350    3.11722    3.04966
    3753      444        3     0.00000   47.38105    3.51127    9.67947
    3754      444        4     0.00000   46.47753    3.09487   10.10875
    3755      444        3     0.00000   34.25024    3.50786   22.76769
    3756      444        4     0.00000   33.34909    3.07831   23.18698
    3757      444        3     0.00000   31.50473    9.64740    3.48131
    3758      444        4     0.00000   32.40641   10.07300    3.05807
    3759      444        3     0.00000   44.64790    9.70891   16.63525
    3760      444        4     0.00000   45.54536   10.13977   16.20886
    3761      444        3     0.00000   47.36528   16.62736    3.50943
    3762      444        4     0.00000   46.46518   16.19808    3.08778
    3763      444        3     0.00000   34.23289   16.63025   16.61632
    3764      444        4     0.00000   33.33385   16.20596   16.18520
    3765      444        3     0.00000   34.22737    3.48420    3.46317
    3766      444        4     0.00000   33.32412    3.05912    3.04204
    3767      444        3     0.00000   31.50526   16.64892   22.78635
    3768      444        4     0.00000   32.40720   16.22647   23.21274
    3769      444        3     0.00000   31.50184    3.50707    9.64766
    3770      444        4     0.00000   32.40536    3.08778   10.07326
    3771      444        3     0.00000   44.64159   16.63577    9.64819
    3772      444        4     0.00000   45.54563   16.21306   10.06879
    3773      444        3     0.00000   47.36002    9.68657   22.79187
    3774      444        4     0.00000   46.44835   10.10191   23.20486
    3775      444        3     0.00000   34.23394    9.62295    9.65003
    3776      444        4     0.00000   33.32754   10.04224   10.06905
    3777      444        3     0.00000   35.92478   22.82000   21.08973
    3778      444        4     0.00000   36.34355   23.24902   20.18779
    3779      444        3     0.00000   35.95133    9.62873    7.94000
    3780      444        4     0.00000   36.37614   10.05354    7.03832
    3781      444        3     0.00000   42.91000   22.81685    5.20711
    3782      444        4     0.00000   42.48177   23.23771    6.10826
    3783      444        3     0.00000   42.92630    9.70602   18.34396
    3784      444        4     0.00000   42.49071   10.13609   19.23775
    3785      444        3     0.00000   29.78708    9.64450    5.19265
    3786      444        4     0.00000   29.36043   10.06958    6.09275
    3787      444        3     0.00000   42.93340    3.47263   21.06476
    3788      444        4     0.00000   42.50254    3.04072   20.17044
    3789      444        3     0.00000   42.92525   16.63919    7.93605
    3790      444        4     0.00000   42.50044   16.21727    7.03333
    3791      444        3     0.00000   29.79602    3.50470    7.92580
    3792      444        4     0.00000   29.37831    3.08304    7.01992
    3793      444        3     0.00000   35.94134    3.49366    5.17793
    3794      444        4     0.00000   36.36431    3.07516    6.08302
    3795      444        3     0.00000   35.94423   16.61632   18.33423
    3796      444        4     0.00000   36.37115   16.18125   19.22986
    3797      444        3     0.00000   49.05480    5.22603   16.66206
    3798      444        4     0.00000   49.47751    6.12718   16.23488
    3799      444        3     0.00000   49.06952   18.35237    3.50076
    3800      444        4     0.00000   49.48750   19.25589    3.07463
    3801      444        3     0.00000   35.94108    5.20001    3.45660
    3802      444        4     0.00000   36.36405    6.10090    3.02968
    3803      444        3     0.00000   49.07399   21.08920    9.63636
    3804      444        4     0.00000   49.49565   20.18963   10.06748
    3805      444        3     0.00000   49.08503    7.98495   22.80580
    3806      444        4     0.00000   49.52009    7.09221   23.24245
    3807      444        3     0.00000   35.95554    7.91502    9.65739
    3808      444        4     0.00000   36.38351    7.01624   10.08430
    3809      444        3     0.00000   29.77499    5.20921    9.65055
    3810      444        4     0.00000   29.34150    6.10484   10.07904
    3811      444        3     0.00000   29.78235   18.35369   22.78215
    3812      444        4     0.00000   29.35175   19.25300   23.20722
    3813      444        3     0.00000   29.78366   21.10261   16.62999
    3814      444        4     0.00000   29.34545   20.20725   16.20570
    3815      444        3     0.00000   29.79155    7.93027    3.47789
    3816      444        4     0.00000   29.36963    7.02781    3.05308
    3817      444        3     0.00000   42.92867   21.10261    3.49208
    3818      444        4     0.00000   42.51148   20.19831    3.06675
    3819      444        3     0.00000   42.95338    7.97680   16.64576
    3820      444        4     0.00000   42.54013    7.06592   16.22831
    3821      444        3     0.00000   35.93898   18.35158   16.64182
    3822      444        4     0.00000   36.35853   19.26220   16.23146
    3823      444        3     0.00000   35.93451   21.09183   22.79029
    3824      444        4     0.00000   36.36090   20.18727   23.20617
    3825      444        3     0.00000   42.96021    5.21236   22.75244
    3826      444        4     0.00000   42.55065    6.12797   23.16095
    3827      444        3     0.00000   42.92341   18.34633    9.65765
    3828      444        4     0.00000   42.49623   19.24485   10.08693
    3829      444        3     0.00000   29.79733   16.64182   21.06555
    3830      444        4     0.00000   29.37541   16.21490   20.16308
    3831      444        3     0.00000   29.81731   22.81474   18.34580
    3832      444        4     0.00000   29.40670   23.24008   19.25273
    3833      444        3     0.00000   49.07609    9.68446   21.08079
    3834      444        4     0.00000   49.49065   10.09955   20.16729
    3835      444        3     0.00000   49.08818   22.79660    7.91450
    3836      444        4     0.00000   49.51852   23.21774    7.01440
    3837      444        3     0.00000   49.08871   16.63787    5.21552
    3838      444        4     0.00000   49.52272   16.21254    6.11115
    3839      444        3     0.00000   49.05822    3.51864   18.38392
    3840      444        4     0.00000   49.48093    3.10013   19.28927
    3841      444        3     0.00000   47.34503    3.50628   16.66705
    3842      444        4     0.00000   46.44599    3.07752   16.24224
    3843      444        3     0.00000   44.65184    3.47631   22.77794
    3844      444        4     0.00000   45.55088    3.04861   23.20512
    3845      444        3     0.00000   47.36317   22.80686    9.61822
    3846      444        4     0.00000   46.46045   23.23482   10.03725
    3847      444        3     0.00000   34.22027   22.80738   22.81501
    3848      444        4     0.00000   33.32123   23.22878   23.24718
    3849      444        3     0.00000   31.51788   22.79792   16.61763
    3850      444        4     0.00000   32.42113   23.21379   16.18704
    3851      444        3     0.00000   44.62792   22.83262    3.49471
    3852      444        4     0.00000   45.52670   23.26374    3.07122
    3853      444        3     0.00000   47.37973   16.67862   22.80028
    3854      444        4     0.00000   46.47937   16.25249   23.22720
    3855      444        3     0.00000   34.23315   16.62368    9.64976
    3856      444        4     0.00000   33.33148   16.19808   10.07247
    3857      444        3     0.00000   31.48055    9.68473   22.80528
    3858      444        4     0.00000   32.37539   10.11690   23.23535
    3859      444        3     0.00000   34.21502    9.64582   16.64813
    3860      444        4     0.00000   33.30361   10.06432   16.23935
    3861      444        3     0.00000   31.49737   16.62815    3.49682
    3862      444        4     0.00000   32.39905   16.20386    3.07200
    3863      444        3     0.00000   44.66419   16.69229   16.65969
    3864      444        4     0.00000   45.57218   16.27720   16.24382
    3865      444        3     0.00000   42.93261    3.48394    5.17504
    3866      444        4     0.00000   42.51253    3.05045    6.07461
    3867      444        3     0.00000   42.93971   16.68440   18.36341
    3868      444        4     0.00000   42.51516   16.26248   19.26535
    3869      444        3     0.00000   35.94923   16.63025    7.93632
    3870      444        4     0.00000   36.37483   16.20859    7.03385
    3871      444        3     0.00000   35.94686   22.79056    5.20842
    3872      444        4     0.00000   36.37089   23.21300    6.11115
    3873      444        3     0.00000   42.94207   22.75533   21.06397
    3874      444        4     0.00000   42.52804   23.17042   20.15309
    3875      444        3     0.00000   42.92709    9.64792    7.92554
    3876      444        4     0.00000   42.51121   10.07563    7.02124
    3877      444        3     0.00000   29.78577    7.95104   22.79187
    3878      444        4     0.00000   29.37831    7.03596   23.20223
    3879      444        3     0.00000   29.77578    5.22025   16.64129
    3880      444        4     0.00000   29.36201    6.12482   16.21227
    3881      444        3     0.00000   49.09896   21.08815   16.61027
    3882      444        4     0.00000   49.51773   20.18227   16.18967
    3883      444        3     0.00000   49.08766    7.93106    3.50050
    3884      444        4     0.00000   49.51641    7.03017    3.07831
    3885      444        3     0.00000   49.11158    5.21026    9.66422
    3886      444        4     0.00000   49.54717    6.10668   10.08640
    3887      444        3     0.00000   49.10790   18.38050   22.81185
    3888      444        4     0.00000   49.54296   19.27140   23.24586
    3889      257        5     0.00000   40.44604   18.83160   13.28170
    3890      257        6     0.00000   41.28042   18.54795   12.83034
    3891      257        6     0.00000   40.14583   19.62602   12.77198
    3892      258        5     0.00000   32.05915   11.11531   12.84190
    3893      258        6     0.00000   31.37487   10.61558   12.32955
    3894      258        6     0.00000   32.69794   11.43497   12.15631
    3895      259        5     0.00000   38.86114   11.97624   10.79723
    3896      259        6     0.00000   38.64873   12.04985   11.76147
    3897      259        6     0.00000   39.00730   11.00806   10.64818
    3898      260        5     0.00000   49.39286   17.27799    9.05092
    3899      260        6     0.00000   48.81794   17.72987    8.38321
    3900      260        6     0.00000   49.44228   16.33898    8.74099
    3901      261        5     0.00000   49.07005    3.29677   23.59102
    3902      261        6     0.00000   48.43283    4.05070   23.51637
    3903      261        6     0.00000   48.78824    2.81307   24.40779
    3904      262        5     0.00000   45.66971   20.53164   18.41231
    3905      262        6     0.00000   46.51854   20.07134   18.63207
    3906      262        6     0.00000   44.96256   19.90914   18.71725
    3907      263        5     0.00000   51.82975   17.00433   26.15068
    3908      263        6     0.00000   50.87418   17.22068   26.29552
    3909      263        6     0.00000   51.89652   16.81032   25.18197
    3910      264        5     0.00000   50.73933   12.63134    6.88454
    3911      264        6     0.00000   51.07318   13.50041    6.54674
    3912      264        6     0.00000   51.55609   12.12950    7.13217
    3913      265        5     0.00000   31.40852    8.10114   18.04612
    3914      265        6     0.00000   31.16509    9.02017   18.32319
    3915      265        6     0.00000   31.88801    7.72575   18.82661
    3916      266        5     0.00000   52.07948    2.13326    2.39456
    3917      266        6     0.00000   52.85550    2.27469    2.99314
    3918      266        6     0.00000   51.28980    2.30519    2.96712
    3919      267        5     0.00000   30.12225   10.61427   15.63105
    3920      267        6     0.00000   30.65195    9.80696   15.41076
    3921      267        6     0.00000   29.25160   10.46942   15.18258
    3922      268        5     0.00000   46.76328    1.51392    1.22975
    3923      268        6     0.00000   47.44388    2.22632    1.12749
    3924      268        6     0.00000   45.96728    1.86171    0.75473
    3925      269        5     0.00000   39.75309    2.62458    0.23580
    3926      269        6     0.00000   39.21813    3.43898    0.41272
    3927      269        6     0.00000   40.69025    2.94372    0.21083
    3928      270        5     0.00000   38.50783   22.49692   11.78329
    3929      270        6     0.00000   39.29962   22.39519   11.19733
    3930      270        6     0.00000   37.79070   22.81474   11.17893
    3931      271        5     0.00000   31.93691   11.85847    0.27129
    3932      271        6     0.00000   31.57755   12.45994   -0.42849
    3933      271        6     0.00000   31.34701   11.06353    0.24316
    3934      272        5     0.00000   46.24778   19.52954    7.36745
    3935      272        6     0.00000   46.81954   19.43044    8.16975
    3936      272        6     0.00000   45.32218   19.49484    7.71760
    3937      273        5     0.00000   38.87586   23.91752   17.36263
    3938      273        6     0.00000   39.02833   24.85994   17.09975
    3939      273        6     0.00000   39.27649   23.84339   18.26510
    3940      274        5     0.00000   47.87526    8.76176    9.01544
    3941      274        6     0.00000   48.76484    8.40713    9.26701
    3942      274        6     0.00000   47.32453    7.95603    8.84851
    3943      275        5     0.00000   42.64134   25.70063    1.76129
    3944      275        6     0.00000   41.79461   25.66435    2.27338
    3945      275        6     0.00000   43.32982   25.93065    2.43505
    3946      276        5     0.00000   42.21548   13.45967   22.24850
    3947      276        6     0.00000   42.20996   12.50568   21.98299
    3948      276        6     0.00000   41.26149   13.72544   22.23930
    3949      277        5     0.00000   36.27704   17.30927    3.38956
    3950      277        6     0.00000   36.52362   17.56268    2.46449
    3951      277        6     0.00000   35.36485   17.67493    3.51206
    3952      278        5     0.00000   42.48992   10.15475   13.52434
    3953      278        6     0.00000   42.03908    9.33142   13.83874
    3954      278        6     0.00000   43.26909    9.82905   13.00778
    3955      279        5     0.00000   29.60464    1.81755    1.55151
    3956      279        6     0.00000   28.89277    1.14668    1.39668
    3957      279        6     0.00000   30.10043    1.47607    2.33778
    3958      280        5     0.00000   37.31305    8.46786   24.46326
    3959      280        6     0.00000   38.10063    7.87664   24.35863
    3960      280        6     0.00000   37.22971    8.59982   25.44117
    3961      281        5     0.00000   41.45838   25.29895   22.62915
    3962      281        6     0.00000   41.67053   25.48191   21.67937
    3963      281        6     0.00000   41.68735   26.13911   23.09997
    3964      282        5     0.00000   36.93029    4.43924   15.53615
    3965      282        6     0.00000   37.75179    4.94949   15.32322
    3966      282        6     0.00000   37.08592    3.54308   15.14551
    3967      283        5     0.00000   51.05347   22.57447   22.38678
    3968      283        6     0.00000   51.86235   22.95880   21.96459
    3969      283        6     0.00000   50.30085   23.07657   21.98457
    3970      284        5     0.00000   37.80463    3.47579    9.60034
    3971      284        6     0.00000   38.53412    3.75943    8.99414
    3972      284        6     0.00000   38.16845    3.62090   10.50964
    3973      285        5     0.00000   43.24281   13.86503   15.33768
    3974      285        6     0.00000   43.52934   13.39395   16.15996
    3975      285        6     0.00000   44.00962   13.77065   14.71807
    3976      286        5     0.00000   35.52152   15.81848   22.24061
    3977      286        6     0.00000   35.96973   16.58083   21.79477
    3978      286        6     0.00000   35.61695   16.00565   23.20827
    3979      287        5     0.00000   27.75135    7.02912   25.79264
    3980      287        6     0.00000   26.98479    7.63059   25.96798
    3981      287        6     0.00000   27.55340    6.62823   24.90910
    3982      288        5     0.00000   47.72700   21.46092    4.37457
    3983      288        6     0.00000   47.04824   20.77138    4.16427
    3984      288        6     0.00000   48.20439   21.60708    3.51942
    3985      289        5     0.00000   33.21713    5.57119    6.52045
    3986      289        6     0.00000   32.42560    5.42056    5.94422
    3987      289        6     0.00000   33.88563    5.98707    5.91951
    3988      290        5     0.00000   38.35720   10.41816    4.15480
    3989      290        6     0.00000   38.85877   10.77541    3.37931
    3990      290        6     0.00000   38.99074    9.79619    4.59250
    3991      291        5     0.00000   26.68090   24.55211   19.58711
    3992      291        6     0.00000   27.34494   24.38571   20.30241
    3993      291        6     0.00000   26.27554   25.42382   19.82371
    3994      292        5     0.00000   38.17345   25.10521    1.96476
    3995      292        6     0.00000   37.88507   25.97271    1.58385
    3996      292        6     0.00000   39.10457   24.99243    1.64746
    3997      293        5     0.00000   48.72830    0.53575   12.12345
    3998      293        6     0.00000   49.05979   -0.38985   12.24228
    3999      293        6     0.00000   49.31137    1.08464   12.70599
    4000      294        5     0.00000   29.70612   23.30554    2.04835
    4001      294        6     0.00000   29.29471   22.86075    2.83147
    4002      294        6     0.00000   30.65695   23.03030    2.07780
    4003      295        5     0.00000   29.62620   15.05350   15.72858
    4004      295        6     0.00000   29.56337   16.04114   15.69230
    4005      295        6     0.00000   30.59097   14.87080   15.85555
    4006      296        5     0.00000   51.30084   23.81657   25.42802
    4007      296        6     0.00000   51.04006   22.86942   25.55315
    4008      296        6     0.00000   52.02402   23.78845   24.75242
    4009      297        5     0.00000   51.85630   10.63162   24.27898
    4010      297        6     0.00000   51.00221   10.55932   24.77451
    4011      297        6     0.00000   51.85499    9.85349   23.66673
    4012      298        5     0.00000   50.46988    8.80934   13.60793
    4013      298        6     0.00000   50.88917    9.37663   14.30272
    4014      298        6     0.00000   49.51037    9.05276   13.63448
    4015      299        5     0.00000   26.67275   12.62082   17.84370
    4016      299        6     0.00000   25.99032   12.43812   17.14996
    4017      299        6     0.00000   26.15883   12.68181   18.68781
    4018      300        5     0.00000   29.25975   14.45125    0.33333
    4019      300        6     0.00000   28.53420   13.91655    0.74395
    4020      300        6     0.00000   30.01368   14.37764    0.97134
    4021      301        5     0.00000   52.65309   16.26459    3.37642
    4022      301        6     0.00000   51.95251   15.89288    3.96895
    4023      301        6     0.00000   52.24799   17.08372    2.99498
    4024      302        5     0.00000   44.25331   25.96298   14.10872
    4025      302        6     0.00000   44.35820   26.01135   15.09215
    4026      302        6     0.00000   43.37977   25.51661   13.97360
    4027      303        5     0.00000   42.93944    3.30202   17.42835
    4028      303        6     0.00000   42.58351    4.22184   17.34002
    4029      303        6     0.00000   43.19549    3.04388   16.50749
    4030      304        5     0.00000   51.19148   16.55665   14.36239
    4031      304        6     0.00000   51.77770   15.79692   14.11687
    4032      304        6     0.00000   50.44806   16.51800   13.70940
    4033      305        5     0.00000   34.41112   20.49352   18.93255
    4034      305        6     0.00000   34.81596   19.84947   19.56661
    4035      305        6     0.00000   35.18425   20.90887   18.47408
    4036      306        5     0.00000   41.81616    0.50525    8.65661
    4037      306        6     0.00000   40.90739    0.21793    8.92474
    4038      306        6     0.00000   41.99545    0.00973    7.81828
    4039      307        5     0.00000   35.02021   21.26717    8.06171
    4040      307        6     0.00000   34.37248   21.55266    8.75387
    4041      307        6     0.00000   34.63562   20.43437    7.68895
    4042      308        5     0.00000   49.64707   26.04474    0.60830
    4043      308        6     0.00000   48.87420   26.22428    0.01577
    4044      308        6     0.00000   49.48224   26.60230    1.40956
    4045      309        5     0.00000   46.12606    8.10640   19.46593
    4046      309        6     0.00000   45.74068    8.26702   20.36340
    4047      309        6     0.00000   46.53353    8.97048   19.20936
    4048      310        5     0.00000   27.70166   13.19285   12.68470
    4049      310        6     0.00000   27.79814   12.38660   12.11793
    4050      310        6     0.00000   27.76291   13.95073   12.05037
    4051      311        5     0.00000   44.46283   13.50199    2.39588
    4052      311        6     0.00000   45.39000   13.23412    2.17480
    4053      311        6     0.00000   44.21020   14.13711    1.67953
    4054      312        5     0.00000   39.53674   11.08850   15.92600
    4055      312        6     0.00000   39.58458   10.31826   15.30560
    4056      312        6     0.00000   40.39504   11.06405   16.41890
    4057      313        5     0.00000   31.68191    1.13432   24.49401
    4058      313        6     0.00000   31.51788    1.98395   24.97561
    4059      313        6     0.00000   32.26288    0.61251   25.10258
    4060      314        5     0.00000   50.09869   12.63712   13.76618
    4061      314        6     0.00000   50.91467   12.15368   13.48122
    4062      314        6     0.00000   50.29401   13.58848   13.57402
    4063      315        5     0.00000   52.12128    1.33989   10.41605
    4064      315        6     0.00000   51.68622    1.06913    9.56880
    4065      315        6     0.00000   51.65493    0.81414   11.11347
    4066      316        5     0.00000   45.50804    5.22787   19.41072
    4067      316        6     0.00000   45.23701    5.49654   20.32528
    4068      316        6     0.00000   44.68181    5.31936   18.87235
    4069      317        5     0.00000   39.25598    9.93315   22.15597
    4070      317        6     0.00000   38.74127   10.35586   21.42332
    4071      317        6     0.00000   40.20314   10.04198   21.88862
    4072      318        5     0.00000   39.31171    7.76702   12.84716
    4073      318        6     0.00000   39.07118    8.72390   12.92970
    4074      318        6     0.00000   38.66451    7.40372   12.19128
    4075      319        5     0.00000   44.28460    8.32380    3.97526
    4076      319        6     0.00000   43.96494    7.88216    4.80148
    4077      319        6     0.00000   43.93155    9.24703    4.03335
    4078      320        5     0.00000   28.51317   13.21940   21.70986
    4079      320        6     0.00000   28.70192   13.92102   22.38257
    4080      320        6     0.00000   27.83862   13.62633   21.10997
    4081      444        1     0.00000   34.57306    6.44132   51.23722
    4082      444        1     0.00000   34.56754   19.55951   38.10825
    4083      444        1     0.00000   47.74172    6.46656   38.12087
    4084      444        1     0.00000   47.73830   19.60499   51.27534
    4085      444        1     0.00000   44.28013   19.83659   51.26509
    4086      444        1     0.00000   44.26777    6.69369   38.11509
    4087      444        1     0.00000   31.16562   19.86866   38.10142
    4088      444        1     0.00000   31.15984    6.72681   51.24143
    4089      444        1     0.00000   44.27172    6.45499   27.58310
    4090      444        1     0.00000   44.29327   19.60499   40.74598
    4091      444        1     0.00000   31.16089    6.41530   40.75492
    4092      444        1     0.00000   31.15405   19.56503   27.61123
    4093      444        1     0.00000   34.56727   19.85683   27.60860
    4094      444        1     0.00000   34.54835    6.72287   40.75361
    4095      444        1     0.00000   47.72542   19.86866   40.72863
    4096      444        1     0.00000   47.72936    6.70394   27.59861
    4097      444        1     0.00000   51.26114    8.28647   32.72292
    4098      444        1     0.00000   51.27323   21.42201   45.82796
    4099      444        1     0.00000   38.13139    8.26754   45.82086
    4100      444        1     0.00000   38.11588   21.41964   32.71529
    4101      444        1     0.00000   51.26955   18.04217   46.16155
    4102      444        1     0.00000   51.26167    4.85564   32.99841
    4103      444        1     0.00000   38.11982   18.01089   33.00604
    4104      444        1     0.00000   38.13875    4.90243   46.14972
    4105      444        1     0.00000   27.61044   18.00747   32.72370
    4106      444        1     0.00000   27.59020    4.90217   45.85661
    4107      444        1     0.00000   40.73888   18.03481   45.83874
    4108      444        1     0.00000   40.74914    4.83776   32.70004
    4109      444        1     0.00000   27.60177    8.29856   46.15761
    4110      444        1     0.00000   27.61334   21.43068   32.99263
    4111      444        1     0.00000   40.75492    8.28121   32.96844
    4112      444        1     0.00000   40.73783   21.41333   46.16418
    4113      444        1     0.00000   32.71739   24.98034   34.55650
    4114      444        1     0.00000   32.70478   11.84033   47.70570
    4115      444        1     0.00000   45.87685   24.93381   47.70150
    4116      444        1     0.00000   45.86345   11.81851   34.58410
    4117      444        1     0.00000   46.15682   24.96562   44.28013
    4118      444        1     0.00000   46.13605   11.81773   31.15195
    4119      444        1     0.00000   33.01603   24.96772   31.15694
    4120      444        1     0.00000   33.01340   11.81641   44.31141
    4121      444        1     0.00000   32.67586    1.33201   44.33481
    4122      444        1     0.00000   32.72029   14.45519   31.15931
    4123      444        1     0.00000   45.89946    1.34515   31.12198
    4124      444        1     0.00000   45.87738   14.51697   44.31430
    4125      444        1     0.00000   46.12580    1.33700   34.59330
    4126      444        1     0.00000   46.14289   14.51749   47.70702
    4127      444        1     0.00000   33.04941    1.34068   47.67390
    4128      444        1     0.00000   33.01944   14.44783   34.56570
    4129      444        1     0.00000   32.72817    8.28043   27.59599
    4130      444        1     0.00000   32.71503   21.41675   40.73678
    4131      444        1     0.00000   45.89026    8.33116   40.75124
    4132      444        1     0.00000   45.87896   21.45382   27.61702
    4133      444        1     0.00000   46.12501   17.99354   27.62359
    4134      444        1     0.00000   46.11502    4.86326   40.76990
    4135      444        1     0.00000   33.01208   18.01878   40.74625
    4136      444        1     0.00000   33.00472    4.85669   27.57837
    4137      444        1     0.00000   32.71161   18.01273   51.25536
    4138      444        1     0.00000   32.69426    4.86878   38.12508
    4139      444        1     0.00000   45.86687   18.00853   38.10957
    4140      444        1     0.00000   45.89210    4.86063   51.23117
    4141      444        1     0.00000   46.12922    8.31513   51.24774
    4142      444        1     0.00000   46.13106   21.44435   38.08985
    4143      444        1     0.00000   33.02049    8.25387   38.11167
    4144      444        1     0.00000   33.00472   21.42043   51.26246
    4145      444        1     0.00000   34.54440   24.99348   46.18574
    4146      444        1     0.00000   34.57463   11.80852   33.00630
    4147      444        1     0.00000   47.73383   24.98218   32.96818
    4148      444        1     0.00000   47.72121   11.87188   46.15971
    4149      444        1     0.00000   44.27172   24.99532   32.73080
    4150      444        1     0.00000   44.29248   11.87293   45.85950
    4151      444        1     0.00000   31.20163   24.98218   45.82717
    4152      444        1     0.00000   31.16483   11.81168   32.71056
    4153      444        1     0.00000   44.28985    1.28732   46.14762
    4154      444        1     0.00000   44.29301   14.46255   32.99973
    4155      444        1     0.00000   31.17245    1.33017   33.00078
    4156      444        1     0.00000   31.17535   14.47359   46.14236
    4157      444        1     0.00000   34.57017    1.32333   32.69321
    4158      444        1     0.00000   34.56885   14.45125   45.83243
    4159      444        1     0.00000   47.71044    1.31650   45.87475
    4160      444        1     0.00000   47.72411   14.45703   32.73474
    4161      444        1     0.00000   51.24064    6.44579   44.31194
    4162      444        1     0.00000   51.25746   19.57791   31.14564
    4163      444        1     0.00000   38.10720    6.43896   31.11935
    4164      444        1     0.00000   38.09958   19.56188   44.31272
    4165      444        1     0.00000   51.25851   19.86393   34.56833
    4166      444        1     0.00000   51.25247    6.75757   47.71517
    4167      444        1     0.00000   38.09748   19.88233   47.68835
    4168      444        1     0.00000   38.11930    6.68370   34.56386
    4169      444        1     0.00000   27.61754    6.43580   34.56044
    4170      444        1     0.00000   27.62043   19.57029   47.68336
    4171      444        1     0.00000   40.77674    6.41898   47.66837
    4172      444        1     0.00000   40.75466   19.57423   34.56964
    4173      444        1     0.00000   27.61912   19.89547   44.30563
    4174      444        1     0.00000   27.61071    6.70683   31.13644
    4175      444        1     0.00000   40.75807   19.86603   31.15458
    4176      444        1     0.00000   40.77253    6.76072   44.29695
    4177      444        1     0.00000   44.31667   19.88995   27.61675
    4178      444        1     0.00000   44.32271    6.77097   40.75518
    4179      444        1     0.00000   31.14774   19.85814   40.74178
    4180      444        1     0.00000   31.16378    6.71814   27.58994
    4181      444        1     0.00000   34.56833    6.42003   27.58363
    4182      444        1     0.00000   34.57779   19.57923   40.74651
    4183      444        1     0.00000   47.68494    6.42319   40.76254
    4184      444        1     0.00000   47.68625   19.55951   27.62385
    4185      444        1     0.00000   34.56833   19.85788   51.25615
    4186      444        1     0.00000   34.57779    6.68528   38.11588
    4187      444        1     0.00000   47.69282   19.88022   38.09222
    4188      444        1     0.00000   47.69861    6.75599   51.24826
    4189      444        1     0.00000   44.32350    6.41740   51.23091
    4190      444        1     0.00000   44.30168   19.57003   38.10747
    4191      444        1     0.00000   31.13618    6.43843   38.11483
    4192      444        1     0.00000   31.14748   19.57502   51.25772
    4193      444        1     0.00000   27.61991   18.00747   46.12186
    4194      444        1     0.00000   27.61386    4.86904   32.99999
    4195      444        1     0.00000   40.75729   18.01326   33.00420
    4196      444        1     0.00000   40.77910    4.86063   46.10109
    4197      444        1     0.00000   27.61281    8.27228   32.69689
    4198      444        1     0.00000   27.62411   21.45724   45.86871
    4199      444        1     0.00000   40.76806    8.31723   45.86713
    4200      444        1     0.00000   40.75413   21.42779   32.71976
    4201      444        1     0.00000   51.24879    8.31618   46.14631
    4202      444        1     0.00000   51.26114   21.42227   33.00025
    4203      444        1     0.00000   38.11719    8.25309   33.00814
    4204      444        1     0.00000   38.09616   21.44882   46.12790
    4205      444        1     0.00000   51.25799   18.01878   32.71345
    4206      444        1     0.00000   51.24116    4.89034   45.88290
    4207      444        1     0.00000   38.10142   17.99670   45.87528
    4208      444        1     0.00000   38.11325    4.86983   32.67586
    4209      444        1     0.00000   46.14736    1.31702   44.31115
    4210      444        1     0.00000   46.16155   14.45677   31.17114
    4211      444        1     0.00000   33.00446    1.31808   31.13197
    4212      444        1     0.00000   33.00314   14.45256   44.27172
    4213      444        1     0.00000   32.73711    1.33411   34.56254
    4214      444        1     0.00000   32.73895   14.47727   47.70439
    4215      444        1     0.00000   45.85188    1.28732   47.71254
    4216      444        1     0.00000   45.85346   14.46045   34.56596
    4217      444        1     0.00000   46.17128   24.98612   34.53363
    4218      444        1     0.00000   46.16076   11.87792   47.72726
    4219      444        1     0.00000   32.98527   24.99033   47.74330
    4220      444        1     0.00000   33.01156   11.80563   34.56885
    4221      444        1     0.00000   32.76392   24.98192   44.26725
    4222      444        1     0.00000   32.72817   11.81510   31.14774
    4223      444        1     0.00000   45.83374   24.99638   31.16693
    4224      444        1     0.00000   45.85477   11.87950   44.29248
    4225      444        1     0.00000   46.18022   18.03613   51.27323
    4226      444        1     0.00000   46.17864    4.90217   38.12928
    4227      444        1     0.00000   33.00130   17.99985   38.10668
    4228      444        1     0.00000   33.01182    4.87535   51.22933
    4229      444        1     0.00000   32.72160    8.29173   51.24826
    4230      444        1     0.00000   32.73369   21.42674   38.09879
    4231      444        1     0.00000   45.83164    8.25966   38.10983
    4232      444        1     0.00000   45.83874   21.40519   51.26745
    4233      444        1     0.00000   46.16523    8.26570   27.59940
    4234      444        1     0.00000   46.16471   21.43463   40.73047
    4235      444        1     0.00000   32.98816    8.28989   40.75124
    4236      444        1     0.00000   33.00341   21.41833   27.61360
    4237      444        1     0.00000   32.71845   18.00301   27.60782
    4238      444        1     0.00000   32.72081    4.84907   40.76412
    4239      444        1     0.00000   45.85556   18.04112   40.74703
    4240      444        1     0.00000   45.83821    4.89507   27.58074
    4241      444        1     0.00000   44.33270    1.34436   32.68296
    4242      444        1     0.00000   44.30957   14.51250   45.87186
    4243      444        1     0.00000   31.12303    1.33280   45.89841
    4244      444        1     0.00000   31.15773   14.45256   32.72265
    4245      444        1     0.00000   34.60408    1.34279   46.10661
    4246      444        1     0.00000   34.58147   14.45046   33.00183
    4247      444        1     0.00000   47.69230    1.33306   33.03390
    4248      444        1     0.00000   47.70991   14.50987   46.14709
    4249      444        1     0.00000   34.58147   24.97035   32.71792
    4250      444        1     0.00000   34.57621   11.81431   45.87370
    4251      444        1     0.00000   47.71964   24.96273   45.84426
    4252      444        1     0.00000   47.69808   11.81483   32.71634
    4253      444        1     0.00000   44.31535   24.93539   46.13658
    4254      444        1     0.00000   44.30352   11.82430   33.01760
    4255      444        1     0.00000   31.15326   24.97876   32.99342
    4256      444        1     0.00000   31.14249   11.83797   46.14157
    4257      444        1     0.00000   27.61123   19.87208   34.56123
    4258      444        1     0.00000   27.60045    6.73496   47.72121
    4259      444        1     0.00000   40.73599   19.84552   47.72358
    4260      444        1     0.00000   40.75492    6.71340   34.52653
    4261      444        1     0.00000   27.59599    6.46157   44.28933
    4262      444        1     0.00000   27.61097   19.56556   31.15589
    4263      444        1     0.00000   40.74440    6.40505   31.14143
    4264      444        1     0.00000   40.73941   19.60052   44.27802
    4265      444        1     0.00000   51.26719   19.85473   44.27172
    4266      444        1     0.00000   51.25851    6.72129   31.16115
    4267      444        1     0.00000   38.11982   19.85788   31.15064
    4268      444        1     0.00000   38.13218    6.70999   44.25331
    4269      444        1     0.00000   51.26824    6.42135   34.55860
    4270      444        1     0.00000   51.27218   19.60998   47.71885
    4271      444        1     0.00000   38.13901    6.46367   47.71596
    4272      444        1     0.00000   38.11614   19.57266   34.57122
    4273      444        2     0.00000   33.61960    7.32959   26.27239
    4274      444        2     0.00000   33.61933   20.46644   39.42265
    4275      444        2     0.00000   46.76092    7.34431   39.43632
    4276      444        2     0.00000   46.75487   20.47486   26.30157
    4277      444        2     0.00000   45.25068   18.96409   26.30026
    4278      444        2     0.00000   45.25278    5.83907   39.44237
    4279      444        2     0.00000   32.10725   18.96146   39.42423
    4280      444        2     0.00000   32.11093    5.82040   26.26608
    4281      444        2     0.00000   45.24831    7.33774   26.27108
    4282      444        2     0.00000   45.24542   20.49010   39.41897
    4283      444        2     0.00000   32.10305    7.32276   39.43316
    4284      444        2     0.00000   32.10462   20.46828   26.29237
    4285      444        2     0.00000   33.61355   18.96041   26.28790
    4286      444        2     0.00000   33.60724    5.81015   39.43921
    4287      444        2     0.00000   46.75382   18.98118   39.41949
    4288      444        2     0.00000   46.75987    5.83302   26.27108
    4289      444        2     0.00000   26.29605    7.32617   33.60750
    4290      444        2     0.00000   26.30341   20.48301   46.74330
    4291      444        2     0.00000   39.45367    7.33459   46.73568
    4292      444        2     0.00000   39.43527   20.47197   33.61723
    4293      444        2     0.00000   26.29973   18.97250   45.23806
    4294      444        2     0.00000   26.29237    5.81515   32.10094
    4295      444        2     0.00000   39.43868   18.96514   32.10725
    4296      444        2     0.00000   39.45551    5.83197   45.22386
    4297      444        2     0.00000   26.29027   18.96830   33.61381
    4298      444        2     0.00000   26.27765    5.85432   46.76039
    4299      444        2     0.00000   39.41897   18.97066   46.75066
    4300      444        2     0.00000   39.43422    5.80463   33.58831
    4301      444        2     0.00000   26.27765    7.35930   45.24857
    4302      444        2     0.00000   26.29132   20.47223   32.10094
    4303      444        2     0.00000   39.43106    7.31803   32.08543
    4304      444        2     0.00000   39.41871   20.48143   45.24463
    4305      444        2     0.00000   33.62590    0.00815   33.60698
    4306      444        2     0.00000   33.62222   13.14579   46.75434
    4307      444        2     0.00000   46.76486   -0.01814   46.75829
    4308      444        2     0.00000   46.76118   13.13790   33.62669
    4309      444        2     0.00000   45.25725   -0.01709   45.24884
    4310      444        2     0.00000   45.25436   13.14027   32.11645
    4311      444        2     0.00000   32.11619    0.00473   32.10015
    4312      444        2     0.00000   32.11251   13.14526   45.24568
    4313      444        2     0.00000   33.62038    0.01840   45.25015
    4314      444        2     0.00000   33.62249   13.13238   32.10699
    4315      444        2     0.00000   46.76197    0.02024   32.10042
    4316      444        2     0.00000   46.78352   13.17996   45.23674
    4317      444        2     0.00000   45.25383    0.02156   33.60593
    4318      444        2     0.00000   45.23412   13.17918   46.78247
    4319      444        2     0.00000   32.11382    0.01735   46.76197
    4320      444        2     0.00000   32.11435   13.12949   33.61565
    4321      444        3     0.00000   34.80071    4.66374   49.63944
    4322      444        3     0.00000   34.10566    5.34801   50.76115
    4323      444        3     0.00000   34.78862   17.77982   36.51494
    4324      444        3     0.00000   34.09672   18.46725   37.63612
    4325      444        3     0.00000   44.07245   21.61707   49.66231
    4326      444        3     0.00000   44.75016   20.93043   50.79164
    4327      444        3     0.00000   44.05852    8.48048   36.51126
    4328      444        3     0.00000   44.73885    7.78648   37.63823
    4329      444        3     0.00000   30.93402    8.51859   49.66073
    4330      444        3     0.00000   31.62750    7.82407   50.77639
    4331      444        3     0.00000   44.06614    4.66242   29.17457
    4332      444        3     0.00000   44.74411    5.36115   28.05287
    4333      444        3     0.00000   44.08980   17.83240   42.35480
    4334      444        3     0.00000   44.76698   18.51483   41.22284
    4335      444        3     0.00000   30.93008    4.64770   42.36111
    4336      444        3     0.00000   31.62776    5.32383   41.23389
    4337      444        3     0.00000   34.78809   21.63678   29.20586
    4338      444        3     0.00000   34.09777   20.94883   28.08336
    4339      444        3     0.00000   34.77784    8.50308   42.34087
    4340      444        3     0.00000   34.08147    7.81855   41.22206
    4341      444        3     0.00000   49.65679    8.49336   30.94585
    4342      444        3     0.00000   50.78507    7.81303   31.63276
    4343      444        3     0.00000   36.52809    8.49546   44.05379
    4344      444        3     0.00000   37.65794    7.80120   44.72807
    4345      444        3     0.00000   49.67414   17.82872   47.93730
    4346      444        3     0.00000   50.79848   18.51588   47.25276
    4347      444        3     0.00000   49.67414    4.64323   34.79335
    4348      444        3     0.00000   50.79453    5.32698   34.09357
    4349      444        3     0.00000   36.52257   17.78639   34.78573
    4350      444        3     0.00000   37.64559   18.47908   34.09935
    4351      444        3     0.00000   29.20717   17.78482   30.94138
    4352      444        3     0.00000   28.08363   18.47408   31.62934
    4353      444        3     0.00000   42.35007   17.82740   44.07666
    4354      444        3     0.00000   41.21522   18.50931   44.75042
    4355      444        3     0.00000   42.33982    4.63245   30.90879
    4356      444        3     0.00000   41.21759    5.31094   31.60621
    4357      444        3     0.00000   29.19771    8.51623   47.93493
    4358      444        3     0.00000   28.07390    7.82749   47.24961
    4359      444        3     0.00000   42.34586    8.49047   34.76102
    4360      444        3     0.00000   41.22679    7.80751   34.06123
    4361      444        3     0.00000   30.93902   23.38440   34.77731
    4362      444        3     0.00000   31.62408   24.50795   34.08726
    4363      444        3     0.00000   30.91904   10.25728   47.93599
    4364      444        3     0.00000   31.60936   11.37215   47.23936
    4365      444        3     0.00000   47.94782   23.38046   44.05326
    4366      444        3     0.00000   47.25303   24.49638   44.74726
    4367      444        3     0.00000   47.91864   10.21784   30.93849
    4368      444        3     0.00000   47.22779   11.34270   31.62303
    4369      444        3     0.00000   34.79151   23.36758   30.93954
    4370      444        3     0.00000   34.10829   24.49454   31.62724
    4371      444        3     0.00000   30.90484    2.92532   44.10400
    4372      444        3     0.00000   31.58517    1.80388   44.80405
    4373      444        3     0.00000   30.93823   16.05165   30.94112
    4374      444        3     0.00000   31.62697   14.92706   31.62960
    4375      444        3     0.00000   47.92705    2.92453   34.81175
    4376      444        3     0.00000   47.22385    1.80519   34.12695
    4377      444        3     0.00000   47.93047   16.10791   47.92547
    4378      444        3     0.00000   47.23725   14.98647   47.23646
    4379      444        3     0.00000   34.79545   16.04929   34.78283
    4380      444        3     0.00000   34.11118   14.92259   34.09488
    4381      444        3     0.00000   30.94690    8.49231   29.19166
    4382      444        3     0.00000   31.63486    7.80856   28.06654
    4383      444        3     0.00000   30.94270   21.64730   42.33535
    4384      444        3     0.00000   31.62171   20.95119   41.21128
    4385      444        3     0.00000   47.91390   17.78508   29.21821
    4386      444        3     0.00000   47.21806   18.46646   28.09572
    4387      444        3     0.00000   47.89918    4.66032   42.37452
    4388      444        3     0.00000   47.20939    5.33513   41.24256
    4389      444        3     0.00000   34.78625    4.63745   29.17168
    4390      444        3     0.00000   34.09777    5.32540   28.05129
    4391      444        3     0.00000   30.93744   17.79901   49.65101
    4392      444        3     0.00000   31.61935   18.48407   50.78139
    4393      444        3     0.00000   30.93008    4.65506   36.51626
    4394      444        3     0.00000   31.60621    5.34302   37.64559
    4395      444        3     0.00000   47.92179    8.53700   49.65968
    4396      444        3     0.00000   47.22726    7.84878   50.77850
    4397      444        3     0.00000   47.91522   21.65255   36.49050
    4398      444        3     0.00000   47.22306   20.97144   37.61667
    4399      444        3     0.00000   34.79782    8.46970   36.51705
    4400      444        3     0.00000   34.11144    7.77990   37.64086
    4401      444        3     0.00000   34.77232   23.39229   47.94992
    4402      444        3     0.00000   34.07727   24.51846   47.27563
    4403      444        3     0.00000   34.79361   10.20391   34.78468
    4404      444        3     0.00000   34.10461   11.33219   34.09804
    4405      444        3     0.00000   44.06062   23.40254   30.93928
    4406      444        3     0.00000   44.74095   24.52503   31.63512
    4407      444        3     0.00000   44.07981   10.28619   44.07377
    4408      444        3     0.00000   44.76251   11.40711   44.76356
    4409      444        3     0.00000   30.94480   10.22100   30.92509
    4410      444        3     0.00000   31.63433   11.34218   31.61619
    4411      444        3     0.00000   44.08244    2.89193   47.91942
    4412      444        3     0.00000   44.76093    1.76050   47.23962
    4413      444        3     0.00000   44.07981   16.06164   34.78073
    4414      444        3     0.00000   44.76330   14.93573   34.09278
    4415      444        3     0.00000   30.95164    2.93136   34.77600
    4416      444        3     0.00000   31.64406    1.80624   34.09146
    4417      444        3     0.00000   34.78678    2.91296   30.90774
    4418      444        3     0.00000   34.09856    1.79178   31.59911
    4419      444        3     0.00000   34.79046   16.04535   44.05537
    4420      444        3     0.00000   34.09909   14.92180   44.73911
    4421      444        3     0.00000   49.63445    4.67136   44.10768
    4422      444        3     0.00000   50.76535    5.35747   44.78906
    4423      444        3     0.00000   36.51626    4.64849   30.90169
    4424      444        3     0.00000   37.63796    5.34223   31.58649
    4425      444        3     0.00000   49.65758   21.64283   34.77048
    4426      444        3     0.00000   50.78586   20.95409   34.09251
    4427      444        3     0.00000   36.50417   21.65992   47.92205
    4428      444        3     0.00000   37.62508   20.97643   47.22201
    4429      444        3     0.00000   36.52835    8.47259   34.78914
    4430      444        3     0.00000   37.64822    7.78043   34.10014
    4431      444        3     0.00000   29.21085    4.65401   34.77705
    4432      444        3     0.00000   28.08810    5.34144   34.09067
    4433      444        3     0.00000   42.37320    4.64271   47.89287
    4434      444        3     0.00000   41.25097    5.32856   47.19677
    4435      444        3     0.00000   29.22242   21.66675   44.07902
    4436      444        3     0.00000   28.09519   20.98721   44.77460
    4437      444        3     0.00000   29.21164    8.48863   30.91957
    4438      444        3     0.00000   28.08520    7.80041   31.60489
    4439      444        3     0.00000   42.34560   21.65650   30.93560
    4440      444        3     0.00000   41.22679   20.96066   31.62513
    4441      444        3     0.00000   44.08297   21.67122   29.20612
    4442      444        3     0.00000   44.78275   20.98432   28.08704
    4443      444        3     0.00000   44.10347    8.54567   42.35322
    4444      444        3     0.00000   44.79668    7.86324   41.22679
    4445      444        3     0.00000   34.78967   17.79349   42.34245
    4446      444        3     0.00000   34.10513   18.48697   41.21969
    4447      444        3     0.00000   34.78205   21.64651   49.66547
    4448      444        3     0.00000   34.09725   20.95224   50.78743
    4449      444        3     0.00000   44.10768    4.64376   49.62866
    4450      444        3     0.00000   44.79826    5.32856   50.75563
    4451      444        3     0.00000   44.08139   17.78771   36.51705
    4452      444        3     0.00000   44.77197   18.47592   37.63823
    4453      444        3     0.00000   29.21453   17.79297   47.91049
    4454      444        3     0.00000   28.09178   18.47671   47.21543
    4455      444        3     0.00000   42.34928   17.79218   34.78704
    4456      444        3     0.00000   41.22758   18.48197   34.09882
    4457      444        3     0.00000   42.36532    8.54146   44.08165
    4458      444        3     0.00000   41.24230    7.85272   44.77171
    4459      444        3     0.00000   49.65548    8.53594   47.93336
    4460      444        3     0.00000   50.77902    7.84930   47.24330
    4461      444        3     0.00000   49.65469   17.79796   30.94191
    4462      444        3     0.00000   50.78244   18.48775   31.62171
    4463      444        3     0.00000   36.51416   17.78087   44.08087
    4464      444        3     0.00000   37.63060   18.46699   44.78039
    4465      444        3     0.00000   47.90812    2.93426   44.11004
    4466      444        3     0.00000   47.23410    1.79678   44.78801
    4467      444        3     0.00000   47.93336   16.05560   30.95111
    4468      444        3     0.00000   47.25303   14.92969   31.64169
    4469      444        3     0.00000   30.95427   16.07321   47.91601
    4470      444        3     0.00000   31.64616   14.94940   47.23278
    4471      444        3     0.00000   47.93362   23.37888   34.75234
    4472      444        3     0.00000   47.25986   24.50847   34.06097
    4473      444        3     0.00000   47.92915   10.26753   47.93336
    4474      444        3     0.00000   47.24724   11.40054   47.25224
    4475      444        3     0.00000   30.97372   23.38151   44.06167
    4476      444        3     0.00000   31.67140   24.50716   44.73780
    4477      444        3     0.00000   47.95071   17.82582   49.67256
    4478      444        3     0.00000   47.27038   18.51036   50.80137
    4479      444        3     0.00000   47.95307    4.66584   36.53519
    4480      444        3     0.00000   47.27248    5.36957   37.65505
    4481      444        3     0.00000   30.94822   21.64782   36.50443
    4482      444        3     0.00000   31.63880   20.95961   37.62719
    4483      444        3     0.00000   47.93520    8.48626   29.20454
    4484      444        3     0.00000   47.25644    7.79568   28.07443
    4485      444        3     0.00000   47.94966   21.65361   42.31852
    4486      444        3     0.00000   47.25855   20.96381   41.19945
    4487      444        3     0.00000   30.93849   17.78376   29.20822
    4488      444        3     0.00000   31.62540   18.47198   28.08257
    4489      444        3     0.00000   44.09979    2.93031   30.90406
    4490      444        3     0.00000   44.80299    1.81492   31.58964
    4491      444        3     0.00000   44.10321   16.11580   44.10058
    4492      444        3     0.00000   44.78459   14.98857   44.78564
    4493      444        3     0.00000   34.81780    2.93951   47.89866
    4494      444        3     0.00000   34.13799    1.81544   47.20176
    4495      444        3     0.00000   34.78468   10.21679   44.08928
    4496      444        3     0.00000   34.10329   11.34034   44.78249
    4497      444        3     0.00000   44.09716   23.33209   47.91233
    4498      444        3     0.00000   44.78670   24.45826   47.22753
    4499      444        3     0.00000   44.07561   10.22284   34.78862
    4500      444        3     0.00000   44.77013   11.34849   34.11013
    4501      444        3     0.00000   29.20927   21.65124   34.77679
    4502      444        3     0.00000   28.08468   20.96329   34.08831
    4503      444        3     0.00000   42.34718   21.61707   47.92863
    4504      444        3     0.00000   41.21312   20.93674   47.25224
    4505      444        3     0.00000   29.18667    4.66978   44.08297
    4506      444        3     0.00000   28.06470    5.36799   44.76277
    4507      444        3     0.00000   49.67493   21.64335   44.05379
    4508      444        3     0.00000   50.79716   20.94988   44.73859
    4509      444        3     0.00000   36.52257   21.63678   30.93429
    4510      444        3     0.00000   37.64559   20.94935   31.62145
    4511      444        3     0.00000   36.54228    4.67662   47.92126
    4512      444        3     0.00000   37.66688    5.37114   47.24330
    4513      444        3     0.00000   35.95685    5.22866   49.07373
    4514      444        4     0.00000   36.37483    6.13060   49.50274
    4515      444        3     0.00000   35.94502   18.34133   35.94213
    4516      444        4     0.00000   36.36694   19.24379   36.36800
    4517      444        3     0.00000   42.91342   21.06528   49.09055
    4518      444        4     0.00000   42.47809   20.17360   49.52430
    4519      444        3     0.00000   42.90948    7.92554   35.92084
    4520      444        4     0.00000   42.48098    7.02334   36.33934
    4521      444        3     0.00000   29.79076   21.08920   35.92951
    4522      444        4     0.00000   29.36832   20.18622   36.35275
    4523      444        3     0.00000   42.90238    5.20027   29.75054
    4524      444        4     0.00000   42.46416    6.09564   29.32652
    4525      444        3     0.00000   42.92209   18.37971   42.91657
    4526      444        4     0.00000   42.48125   19.26535   42.47467
    4527      444        3     0.00000   29.78366   18.34343   29.78524
    4528      444        4     0.00000   29.35964   19.24563   29.36174
    4529      444        3     0.00000   35.94739   21.08027   29.77709
    4530      444        4     0.00000   36.37641   20.18411   29.34755
    4531      444        3     0.00000   35.94870    7.95130   42.89397
    4532      444        4     0.00000   36.38298    7.06645   42.44865
    4533      444        3     0.00000   49.07215    9.64424   31.50447
    4534      444        4     0.00000   49.49013   10.06774   32.40956
    4535      444        3     0.00000   49.10028   22.79950   44.61504
    4536      444        4     0.00000   49.52062   23.21931   45.52092
    4537      444        3     0.00000   35.94739    9.64056   44.63317
    4538      444        4     0.00000   36.37536   10.05722   45.53616
    4539      444        3     0.00000   49.08871   16.68099   47.36974
    4540      444        4     0.00000   49.51116   16.25591   46.46754
    4541      444        3     0.00000   49.08608    3.48893   34.24393
    4542      444        4     0.00000   49.50432    3.05833   33.34226
    4543      444        3     0.00000   35.97263    3.52258   47.35055
    4544      444        4     0.00000   36.40112    3.10486   46.44730
    4545      444        3     0.00000   29.78209   16.62789   31.49948
    4546      444        4     0.00000   29.35649   16.20281   32.40010
    4547      444        3     0.00000   29.74923    3.51075   44.65105
    4548      444        4     0.00000   29.31469    3.09119   45.54983
    4549      444        3     0.00000   29.76421    9.67815   47.37947
    4550      444        4     0.00000   29.33572   10.10375   46.48095
    4551      444        3     0.00000   29.78156   22.80949   34.22106
    4552      444        4     0.00000   29.35254   23.23771   33.32333
    4553      444        3     0.00000   31.50342   22.80554   35.92951
    4554      444        4     0.00000   32.40562   23.22983   36.35275
    4555      444        3     0.00000   44.64421   22.76374   49.07741
    4556      444        4     0.00000   45.54536   23.18803   49.50301
    4557      444        3     0.00000   44.62082    9.64266   35.94844
    4558      444        4     0.00000   45.51461   10.06984   36.38613
    4559      444        3     0.00000   47.39419   22.81185   42.89213
    4560      444        4     0.00000   46.49515   23.24087   42.46495
    4561      444        3     0.00000   47.37001    9.64214   29.77736
    4562      444        4     0.00000   46.47254   10.06853   29.34571
    4563      444        3     0.00000   34.22947   22.79135   29.78498
    4564      444        4     0.00000   33.32701   23.21511   29.36253
    4565      444        3     0.00000   31.47477    3.49077   42.94733
    4566      444        4     0.00000   32.37407    3.05728   42.52830
    4567      444        3     0.00000   44.64895    3.51942   29.75291
    4568      444        4     0.00000   45.56350    3.11722   29.33756
    4569      444        3     0.00000   47.38105    3.51127   35.96737
    4570      444        4     0.00000   46.47753    3.09487   36.39665
    4571      444        3     0.00000   34.25024    3.50786   49.05559
    4572      444        4     0.00000   33.34909    3.07831   49.47488
    4573      444        3     0.00000   31.50473    9.64740   29.76921
    4574      444        4     0.00000   32.40641   10.07300   29.34597
    4575      444        3     0.00000   44.64790    9.70891   42.92315
    4576      444        4     0.00000   45.54536   10.13977   42.49676
    4577      444        3     0.00000   47.36528   16.62736   29.79733
    4578      444        4     0.00000   46.46518   16.19808   29.37568
    4579      444        3     0.00000   34.23289   16.63025   42.90422
    4580      444        4     0.00000   33.33385   16.20596   42.47310
    4581      444        3     0.00000   34.22737    3.48420   29.75107
    4582      444        4     0.00000   33.32412    3.05912   29.32994
    4583      444        3     0.00000   31.50526   16.64892   49.07425
    4584      444        4     0.00000   32.40720   16.22647   49.50064
    4585      444        3     0.00000   31.50184    3.50707   35.93556
    4586      444        4     0.00000   32.40536    3.08778   36.36116
    4587      444        3     0.00000   44.64159   16.63577   35.93609
    4588      444        4     0.00000   45.54563   16.21306   36.35669
    4589      444        3     0.00000   47.36002    9.68657   49.07977
    4590      444        4     0.00000   46.44835   10.10191   49.49276
    4591      444        3     0.00000   34.23394    9.62295   35.93793
    4592      444        4     0.00000   33.32754   10.04224   36.35695
    4593      444        3     0.00000   35.92478   22.82000   47.37763
    4594      444        4     0.00000   36.34355   23.24902   46.47569
    4595      444        3     0.00000   35.95133    9.62873   34.22790
    4596      444        4     0.00000   36.37614   10.05354   33.32622
    4597      444        3     0.00000   42.91000   22.81685   31.49501
    4598      444        4     0.00000   42.48177   23.23771   32.39616
    4599      444        3     0.00000   42.92630    9.70602   44.63186
    4600      444        4     0.00000   42.49071   10.13609   45.52565
    4601      444        3     0.00000   29.78708    9.64450   31.48055
    4602      444        4     0.00000   29.36043   10.06958   32.38065
    4603      444        3     0.00000   42.93340    3.47263   47.35266
    4604      444        4     0.00000   42.50254    3.04072   46.45834
    4605      444        3     0.00000   42.92525   16.63919   34.22395
    4606      444        4     0.00000   42.50044   16.21727   33.32123
    4607      444        3     0.00000   29.79602    3.50470   34.21370
    4608      444        4     0.00000   29.37831    3.08304   33.30782
    4609      444        3     0.00000   35.94134    3.49366   31.46583
    4610      444        4     0.00000   36.36431    3.07516   32.37092
    4611      444        3     0.00000   35.94423   16.61632   44.62213
    4612      444        4     0.00000   36.37115   16.18125   45.51776
    4613      444        3     0.00000   49.05480    5.22603   42.94996
    4614      444        4     0.00000   49.47751    6.12718   42.52278
    4615      444        3     0.00000   49.06952   18.35237   29.78866
    4616      444        4     0.00000   49.48750   19.25589   29.36253
    4617      444        3     0.00000   35.94108    5.20001   29.74450
    4618      444        4     0.00000   36.36405    6.10090   29.31758
    4619      444        3     0.00000   49.07399   21.08920   35.92426
    4620      444        4     0.00000   49.49565   20.18963   36.35538
    4621      444        3     0.00000   49.08503    7.98495   49.09370
    4622      444        4     0.00000   49.52009    7.09221   49.53035
    4623      444        3     0.00000   35.95554    7.91502   35.94529
    4624      444        4     0.00000   36.38351    7.01624   36.37220
    4625      444        3     0.00000   29.77499    5.20921   35.93845
    4626      444        4     0.00000   29.34150    6.10484   36.36694
    4627      444        3     0.00000   29.78235   18.35369   49.07005
    4628      444        4     0.00000   29.35175   19.25300   49.49512
    4629      444        3     0.00000   29.78366   21.10261   42.91789
    4630      444        4     0.00000   29.34545   20.20725   42.49360
    4631      444        3     0.00000   29.79155    7.93027   29.76579
    4632      444        4     0.00000   29.36963    7.02781   29.34098
    4633      444        3     0.00000   42.92867   21.10261   29.77998
    4634      444        4     0.00000   42.51148   20.19831   29.35465
    4635      444        3     0.00000   42.95338    7.97680   42.93366
    4636      444        4     0.00000   42.54013    7.06592   42.51621
    4637      444        3     0.00000   35.93898   18.35158   42.92972
    4638      444        4     0.00000   36.35853   19.26220   42.51936
    4639      444        3     0.00000   35.93451   21.09183   49.07819
    4640      444        4     0.00000   36.36090   20.18727   49.49407
    4641      444        3     0.00000   42.96021    5.21236   49.04034
    4642      444        4     0.00000   42.55065    6.12797   49.44885
    4643      444        3     0.00000   42.92341   18.34633   35.94555
    4644      444        4     0.00000   42.49623   19.24485   36.37483
    4645      444        3     0.00000   29.79733   16.64182   47.35345
    4646      444        4     0.00000   29.37541   16.21490   46.45098
    4647      444        3     0.00000   29.81731   22.81474   44.63370
    4648      444        4     0.00000   29.40670   23.24008   45.54063
    4649      444        3     0.00000   49.07609    9.68446   47.36869
    4650      444        4     0.00000   49.49065   10.09955   46.45519
    4651      444        3     0.00000   49.08818   22.79660   34.20240
    4652      444        4     0.00000   49.51852   23.21774   33.30230
    4653      444        3     0.00000   49.08871   16.63787   31.50342
    4654      444        4     0.00000   49.52272   16.21254   32.39905
    4655      444        3     0.00000   49.05822    3.51864   44.67182
    4656      444        4     0.00000   49.48093    3.10013   45.57717
    4657      444        3     0.00000   47.34503    3.50628   42.95495
    4658      444        4     0.00000   46.44599    3.07752   42.53014
    4659      444        3     0.00000   44.65184    3.47631   49.06584
    4660      444        4     0.00000   45.55088    3.04861   49.49302
    4661      444        3     0.00000   47.36317   22.80686   35.90612
    4662      444        4     0.00000   46.46045   23.23482   36.32515
    4663      444        3     0.00000   34.22027   22.80738   49.10291
    4664      444        4     0.00000   33.32123   23.22878   49.53508
    4665      444        3     0.00000   31.51788   22.79792   42.90553
    4666      444        4     0.00000   32.42113   23.21379   42.47494
    4667      444        3     0.00000   44.62792   22.83262   29.78261
    4668      444        4     0.00000   45.52670   23.26374   29.35912
    4669      444        3     0.00000   47.37973   16.67862   49.08818
    4670      444        4     0.00000   46.47937   16.25249   49.51510
    4671      444        3     0.00000   34.23315   16.62368   35.93766
    4672      444        4     0.00000   33.33148   16.19808   36.36037
    4673      444        3     0.00000   31.48055    9.68473   49.09318
    4674      444        4     0.00000   32.37539   10.11690   49.52325
    4675      444        3     0.00000   34.21502    9.64582   42.93603
    4676      444        4     0.00000   33.30361   10.06432   42.52725
    4677      444        3     0.00000   31.49737   16.62815   29.78472
    4678      444        4     0.00000   32.39905   16.20386   29.35990
    4679      444        3     0.00000   44.66419   16.69229   42.94759
    4680      444        4     0.00000   45.57218   16.27720   42.53172
    4681      444        3     0.00000   42.93261    3.48394   31.46294
    4682      444        4     0.00000   42.51253    3.05045   32.36251
    4683      444        3     0.00000   42.93971   16.68440   44.65131
    4684      444        4     0.00000   42.51516   16.26248   45.55325
    4685      444        3     0.00000   35.94923   16.63025   34.22422
    4686      444        4     0.00000   36.37483   16.20859   33.32175
    4687      444        3     0.00000   35.94686   22.79056   31.49632
    4688      444        4     0.00000   36.37089   23.21300   32.39905
    4689      444        3     0.00000   42.94207   22.75533   47.35187
    4690      444        4     0.00000   42.52804   23.17042   46.44099
    4691      444        3     0.00000   42.92709    9.64792   34.21344
    4692      444        4     0.00000   42.51121   10.07563   33.30914
    4693      444        3     0.00000   29.78577    7.95104   49.07977
    4694      444        4     0.00000   29.37831    7.03596   49.49013
    4695      444        3     0.00000   29.77578    5.22025   42.92919
    4696      444        4     0.00000   29.36201    6.12482   42.50017
    4697      444        3     0.00000   49.09896   21.08815   42.89817
    4698      444        4     0.00000   49.51773   20.18227   42.47757
    4699      444        3     0.00000   49.08766    7.93106   29.78840
    4700      444        4     0.00000   49.51641    7.03017   29.36621
    4701      444        3     0.00000   49.11158    5.21026   35.95212
    4702      444        4     0.00000   49.54717    6.10668   36.37430
    4703      444        3     0.00000   49.10790   18.38050   49.09975
    4704      444        4     0.00000   49.54296   19.27140   49.53376
    4705      321        5     0.00000   40.44604   18.83160   39.56960
    4706      321        6     0.00000   41.28042   18.54795   39.11824
    4707      321        6     0.00000   40.14583   19.62602   39.05988
    4708      322        5     0.00000   32.05915   11.11531   39.12980
    4709      322        6     0.00000   31.37487   10.61558   38.61745
    4710      322        6     0.00000   32.69794   11.43497   38.44421
    4711      323        5     0.00000   38.86114   11.97624   37.08513
    4712      323        6     0.00000   38.64873   12.04985   38.04937
    4713      323        6     0.00000   39.00730   11.00806   36.93608
    4714      324        5     0.00000   49.39286   17.27799   35.33882
    4715      324        6     0.00000   48.81794   17.72987   34.67111
    4716      324        6     0.00000   49.44228   16.33898   35.02889
    4717      325        5     0.00000   49.07005    3.29677   49.87892
    4718      325        6     0.00000   48.43283    4.05070   49.80427
    4719      325        6     0.00000   48.78824    2.81307   50.69569
    4720      326        5     0.00000   45.66971   20.53164   44.70021
    4721      326        6     0.00000   46.51854   20.07134   44.91997
    4722      326        6     0.00000   44.96256   19.90914   45.00515
    4723      327        5     0.00000   51.82975   17.00433   52.43858
    4724      327        6     0.00000   50.87418   17.22068   52.58342
    4725      327        6     0.00000   51.89652   16.81032   51.46987
    4726      328        5     0.00000   50.73933   12.63134   33.17244
    4727      328        6     0.00000   51.07318   13.50041   32.83464
    4728      328        6     0.00000   51.55609   12.12950   33.42007
    4729      329        5     0.00000   31.40852    8.10114   44.33402
    4730      329        6     0.00000   31.16509    9.02017   44.61109
    4731      329        6     0.00000   31.88801    7.72575   45.11451
    4732      330        5     0.00000   52.07948    2.13326   28.68246
    4733      330        6     0.00000   52.85550    2.27469   29.28104
    4734      330        6     0.00000   51.28980    2.30519   29.25502
    4735      331        5     0.00000   30.12225   10.61427   41.91895
    4736      331        6     0.00000   30.65195    9.80696   41.69866
    4737      331        6     0.00000   29.25160   10.46942   41.47048
    4738      332        5     0.00000   46.76328    1.51392   27.51765
    4739      332        6     0.00000   47.44388    2.22632   27.41539
    4740      332        6     0.00000   45.96728    1.86171   27.04263
    4741      333        5     0.00000   39.75309    2.62458   26.52370
    4742      333        6     0.00000   39.21813    3.43898   26.70062
    4743      333        6     0.00000   40.69025    2.94372   26.49873
    4744      334        5     0.00000   38.50783   22.49692   38.07119
    4745      334        6     0.00000   39.29962   22.39519   37.48523
    4746      334        6     0.00000   37.79070   22.81474   37.46683
    4747      335        5     0.00000   31.93691   11.85847   26.55919
    4748      335        6     0.00000   31.57755   12.45994   25.85941
    4749      335        6     0.00000   31.34701   11.06353   26.53106
    4750      336        5     0.00000   46.24778   19.52954   33.65535
    4751      336        6     0.00000   46.81954   19.43044   34.45765
    4752      336        6     0.00000   45.32218   19.49484   34.00550
    4753      337        5     0.00000   38.87586   23.91752   43.65053
    4754      337        6     0.00000   39.02833   24.85994   43.38765
    4755      337        6     0.00000   39.27649   23.84339   44.55300
    4756      338        5     0.00000   47.87526    8.76176   35.30334
    4757      338        6     0.00000   48.76484    8.40713   35.55491
    4758      338        6     0.00000   47.32453    7.95603   35.13641
    4759      339        5     0.00000   42.64134   25.70063   28.04919
    4760      339        6     0.00000   41.79461   25.66435   28.56128
    4761      339        6     0.00000   43.32982   25.93065   28.72295
    4762      340        5     0.00000   42.21548   13.45967   48.53640
    4763      340        6     0.00000   42.20996   12.50568   48.27089
    4764      340        6     0.00000   41.26149   13.72544   48.52720
    4765      341        5     0.00000   36.27704   17.30927   29.67746
    4766      341        6     0.00000   36.52362   17.56268   28.75239
    4767      341        6     0.00000   35.36485   17.67493   29.79996
    4768      342        5     0.00000   42.48992   10.15475   39.81224
    4769      342        6     0.00000   42.03908    9.33142   40.12664
    4770      342        6     0.00000   43.26909    9.82905   39.29568
    4771      343        5     0.00000   29.60464    1.81755   27.83941
    4772      343        6     0.00000   28.89277    1.14668   27.68458
    4773      343        6     0.00000   30.10043    1.47607   28.62568
    4774      344        5     0.00000   37.31305    8.46786   50.75116
    4775      344        6     0.00000   38.10063    7.87664   50.64653
    4776      344        6     0.00000   37.22971    8.59982   51.72907
    4777      345        5     0.00000   41.45838   25.29895   48.91705
    4778      345        6     0.00000   41.67053   25.48191   47.96727
    4779      345        6     0.00000   41.68735   26.13911   49.38787
    4780      346        5     0.00000   36.93029    4.43924   41.82405
    4781      346        6     0.00000   37.75179    4.94949   41.61112
    4782      346        6     0.00000   37.08592    3.54308   41.43341
    4783      347        5     0.00000   51.05347   22.57447   48.67468
    4784      347        6     0.00000   51.86235   22.95880   48.25249
    4785      347        6     0.00000   50.30085   23.07657   48.27247
    4786      348        5     0.00000   37.80463    3.47579   35.88824
    4787      348        6     0.00000   38.53412    3.75943   35.28204
    4788      348        6     0.00000   38.16845    3.62090   36.79754
    4789      349        5     0.00000   43.24281   13.86503   41.62558
    4790      349        6     0.00000   43.52934   13.39395   42.44786
    4791      349        6     0.00000   44.00962   13.77065   41.00597
    4792      350        5     0.00000   35.52152   15.81848   48.52851
    4793      350        6     0.00000   35.96973   16.58083   48.08267
    4794      350        6     0.00000   35.61695   16.00565   49.49617
    4795      351        5     0.00000   27.75135    7.02912   52.08054
    4796      351        6     0.00000   26.98479    7.63059   52.25588
    4797      351        6     0.00000   27.55340    6.62823   51.19700
    4798      352        5     0.00000   47.72700   21.46092   30.66247
    4799      352        6     0.00000   47.04824   20.77138   30.45217
    4800      352        6     0.00000   48.20439   21.60708   29.80732
    4801      353        5     0.00000   33.21713    5.57119   32.80835
    4802      353        6     0.00000   32.42560    5.42056   32.23212
    4803      353        6     0.00000   33.88563    5.98707   32.20741
    4804      354        5     0.00000   38.35720   10.41816   30.44270
    4805      354        6     0.00000   38.85877   10.77541   29.66721
    4806      354        6     0.00000   38.99074    9.79619   30.88040
    4807      355        5     0.00000   26.68090   24.55211   45.87501
    4808      355        6     0.00000   27.34494   24.38571   46.59031
    4809      355        6     0.00000   26.27554   25.42382   46.11161
    4810      356        5     0.00000   38.17345   25.10521   28.25266
    4811      356        6     0.00000   37.88507   25.97271   27.87175
    4812      356        6     0.00000   39.10457   24.99243   27.93536
    4813      357        5     0.00000   48.72830    0.53575   38.41135
    4814      357        6     0.00000   49.05979   -0.38985   38.53018
    4815      357        6     0.00000   49.31137    1.08464   38.99389
    4816      358        5     0.00000   29.70612   23.30554   28.33625
    4817      358        6     0.00000   29.29471   22.86075   29.11937
    4818      358        6     0.00000   30.65695   23.03030   28.36570
    4819      359        5     0.00000   29.62620   15.05350   42.01648
    4820      359        6     0.00000   29.56337   16.04114   41.98020
    4821      359        6     0.00000   30.59097   14.87080   42.14345
    4822      360        5     0.00000   51.30084   23.81657   51.71592
    4823      360        6     0.00000   51.04006   22.86942   51.84105
    4824      360        6     0.00000   52.02402   23.78845   51.04032
    4825      361        5     0.00000   51.85630   10.63162   50.56688
    4826      361        6     0.00000   51.00221   10.55932   51.06241
    4827      361        6     0.00000   51.85499    9.85349   49.95463
    4828      362        5     0.00000   50.46988    8.80934   39.89583
    4829      362        6     0.00000   50.88917    9.37663   40.59062
    4830      362        6     0.00000   49.51037    9.05276   39.92238
    4831      363        5     0.00000   26.67275   12.62082   44.13160
    4832      363        6     0.00000   25.99032   12.43812   43.43786
    4833      363        6     0.00000   26.15883   12.68181   44.97571
    4834      364        5     0.00000   29.25975   14.45125   26.62123
    4835      364        6     0.00000   28.53420   13.91655   27.03185
    4836      364        6     0.00000   30.01368   14.37764   27.25924
    4837      365        5     0.00000   52.65309   16.26459   29.66432
    4838      365        6     0.00000   51.95251   15.89288   30.25685
    4839      365        6     0.00000   52.24799   17.08372   29.28288
    4840      366        5     0.00000   44.25331   25.96298   40.39662
    4841      366        6     0.00000   44.35820   26.01135   41.38005
    4842      366        6     0.00000   43.37977   25.51661   40.26150
    4843      367        5     0.00000   42.93944    3.30202   43.71625
    4844      367        6     0.00000   42.58351    4.22184   43.62792
    4845      367        6     0.00000   43.19549    3.04388   42.79539
    4846      368        5     0.00000   51.19148   16.55665   40.65029
    4847      368        6     0.00000   51.77770   15.79692   40.40477
    4848      368        6     0.00000   50.44806   16.51800   39.99730
    4849      369        5     0.00000   34.41112   20.49352   45.22045
    4850      369        6     0.00000   34.81596   19.84947   45.85451
    4851      369        6     0.00000   35.18425   20.90887   44.76198
    4852      370        5     0.00000   41.81616    0.50525   34.94451
    4853      370        6     0.00000   40.90739    0.21793   35.21264
    4854      370        6     0.00000   41.99545    0.00973   34.10618
    4855      371        5     0.00000   35.02021   21.26717   34.34961
    4856      371        6     0.00000   34.37248   21.55266   35.04177
    4857      371        6     0.00000   34.63562   20.43437   33.97685
    4858      372        5     0.00000   49.64707   26.04474   26.89620
    4859      372        6     0.00000   48.87420   26.22428   26.30367
    4860      372        6     0.00000   49.48224   26.60230   27.69746
    4861      373        5     0.00000   46.12606    8.10640   45.75383
    4862      373        6     0.00000   45.74068    8.26702   46.65130
    4863      373        6     0.00000   46.53353    8.97048   45.49726
    4864      374        5     0.00000   27.70166   13.19285   38.97260
    4865      374        6     0.00000   27.79814   12.38660   38.40583
    4866      374        6     0.00000   27.76291   13.95073   38.33827
    4867      375        5     0.00000   44.46283   13.50199   28.68378
    4868      375        6     0.00000   45.39000   13.23412   28.46270
    4869      375        6     0.00000   44.21020   14.13711   27.96743
    4870      376        5     0.00000   39.53674   11.08850   42.21390
    4871      376        6     0.00000   39.58458   10.31826   41.59350
    4872      376        6     0.00000   40.39504   11.06405   42.70680
    4873      377        5     0.00000   31.68191    1.13432   50.78191
    4874      377        6     0.00000   31.51788    1.98395   51.26351
    4875      377        6     0.00000   32.26288    0.61251   51.39048
    4876      378        5     0.00000   50.09869   12.63712   40.05408
    4877      378        6     0.00000   50.91467   12.15368   39.76912
    4878      378        6     0.00000   50.29401   13.58848   39.86192
    4879      379        5     0.00000   52.12128    1.33989   36.70395
    4880      379        6     0.00000   51.68622    1.06913   35.85670
    4881      379        6     0.00000   51.65493    0.81414   37.40137
    4882      380        5     0.00000   45.50804    5.22787   45.69862
    4883      380        6     0.00000   45.23701    5.49654   46.61318
    4884      380        6     0.00000   44.68181    5.31936   45.16025
    4885      381        5     0.00000   39.25598    9.93315   48.44387
    4886      381        6     0.00000   38.74127   10.35586   47.71122
    4887      381        6     0.00000   40.20314   10.04198   48.17652
    4888      382        5     0.00000   39.31171    7.76702   39.13506
    4889      382        6     0.00000   39.07118    8.72390   39.21760
    4890      382        6     0.00000   38.66451    7.40372   38.47918
    4891      383        5     0.00000   44.28460    8.32380   30.26316
    4892      383        6     0.00000   43.96494    7.88216   31.08938
    4893      383        6     0.00000   43.93155    9.24703   30.32125
    4894      384        5     0.00000   28.51317   13.21940   47.99776
    4895      384        6     0.00000   28.70192   13.92102   48.67047
    4896      384        6     0.00000   27.83862   13.62633   47.39787
    4897      444        1     0.00000   34.57306   32.72922   24.94932
    4898      444        1     0.00000   34.56754   45.84741   11.82035
    4899      444        1     0.00000   47.74172   32.75446   11.83297
    4900      444        1     0.00000   47.73830   45.89289   24.98744
    4901      444        1     0.00000   44.28013   46.12449   24.97719
    4902      444        1     0.00000   44.26777   32.98159   11.82719
    4903      444        1     0.00000   31.16562   46.15656   11.81352
    4904      444        1     0.00000   31.15984   33.01471   24.95353
    4905      444        1     0.00000   44.27172   32.74289    1.29520
    4906      444        1     0.00000   44.29327   45.89289   14.45808
    4907      444        1     0.00000   31.16089   32.70320   14.46702
    4908      444        1     0.00000   31.15405   45.85293    1.32333
    4909      444        1     0.00000   34.56727   46.14473    1.32070
    4910      444        1     0.00000   34.54835   33.01077   14.46571
    4911      444        1     0.00000   47.72542   46.15656   14.44073
    4912      444        1     0.00000   47.72936   32.99184    1.31071
    4913      444        1     0.00000   51.26114   34.57437    6.43502
    4914      444        1     0.00000   51.27323   47.70991   19.54006
    4915      444        1     0.00000   38.13139   34.55544   19.53296
    4916      444        1     0.00000   38.11588   47.70754    6.42739
    4917      444        1     0.00000   51.26955   44.33007   19.87365
    4918      444        1     0.00000   51.26167   31.14354    6.71051
    4919      444        1     0.00000   38.11982   44.29879    6.71814
    4920      444        1     0.00000   38.13875   31.19033   19.86182
    4921      444        1     0.00000   27.61044   44.29537    6.43580
    4922      444        1     0.00000   27.59020   31.19007   19.56871
    4923      444        1     0.00000   40.73888   44.32271   19.55084
    4924      444        1     0.00000   40.74914   31.12566    6.41214
    4925      444        1     0.00000   27.60177   34.58646   19.86971
    4926      444        1     0.00000   27.61334   47.71858    6.70473
    4927      444        1     0.00000   40.75492   34.56911    6.68054
    4928      444        1     0.00000   40.73783   47.70123   19.87628
    4929      444        1     0.00000   32.71739   51.26824    8.26860
    4930      444        1     0.00000   32.70478   38.12823   21.41780
    4931      444        1     0.00000   45.87685   51.22171   21.41360
    4932      444        1     0.00000   45.86345   38.10641    8.29620
    4933      444        1     0.00000   46.15682   51.25352   17.99223
    4934      444        1     0.00000   46.13605   38.10563    4.86405
    4935      444        1     0.00000   33.01603   51.25562    4.86904
    4936      444        1     0.00000   33.01340   38.10431   18.02351
    4937      444        1     0.00000   32.67586   27.61991   18.04691
    4938      444        1     0.00000   32.72029   40.74309    4.87141
    4939      444        1     0.00000   45.89946   27.63305    4.83408
    4940      444        1     0.00000   45.87738   40.80487   18.02640
    4941      444        1     0.00000   46.12580   27.62490    8.30540
    4942      444        1     0.00000   46.14289   40.80539   21.41912
    4943      444        1     0.00000   33.04941   27.62858   21.38600
    4944      444        1     0.00000   33.01944   40.73573    8.27780
    4945      444        1     0.00000   32.72817   34.56833    1.30809
    4946      444        1     0.00000   32.71503   47.70465   14.44888
    4947      444        1     0.00000   45.89026   34.61906   14.46334
    4948      444        1     0.00000   45.87896   47.74172    1.32912
    4949      444        1     0.00000   46.12501   44.28144    1.33569
    4950      444        1     0.00000   46.11502   31.15116   14.48200
    4951      444        1     0.00000   33.01208   44.30668   14.45835
    4952      444        1     0.00000   33.00472   31.14459    1.29047
    4953      444        1     0.00000   32.71161   44.30063   24.96746
    4954      444        1     0.00000   32.69426   31.15668   11.83718
    4955      444        1     0.00000   45.86687   44.29643   11.82167
    4956      444        1     0.00000   45.89210   31.14853   24.94327
    4957      444        1     0.00000   46.12922   34.60303   24.95984
    4958      444        1     0.00000   46.13106   47.73225   11.80195
    4959      444        1     0.00000   33.02049   34.54177   11.82377
    4960      444        1     0.00000   33.00472   47.70833   24.97456
    4961      444        1     0.00000   34.54440   51.28138   19.89784
    4962      444        1     0.00000   34.57463   38.09642    6.71840
    4963      444        1     0.00000   47.73383   51.27008    6.68028
    4964      444        1     0.00000   47.72121   38.15978   19.87181
    4965      444        1     0.00000   44.27172   51.28322    6.44290
    4966      444        1     0.00000   44.29248   38.16083   19.57160
    4967      444        1     0.00000   31.20163   51.27008   19.53927
    4968      444        1     0.00000   31.16483   38.09958    6.42266
    4969      444        1     0.00000   44.28985   27.57522   19.85972
    4970      444        1     0.00000   44.29301   40.75045    6.71183
    4971      444        1     0.00000   31.17245   27.61807    6.71288
    4972      444        1     0.00000   31.17535   40.76149   19.85446
    4973      444        1     0.00000   34.57017   27.61123    6.40531
    4974      444        1     0.00000   34.56885   40.73915   19.54453
    4975      444        1     0.00000   47.71044   27.60440   19.58685
    4976      444        1     0.00000   47.72411   40.74493    6.44684
    4977      444        1     0.00000   51.24064   32.73369   18.02404
    4978      444        1     0.00000   51.25746   45.86581    4.85774
    4979      444        1     0.00000   38.10720   32.72686    4.83145
    4980      444        1     0.00000   38.09958   45.84978   18.02482
    4981      444        1     0.00000   51.25851   46.15183    8.28043
    4982      444        1     0.00000   51.25247   33.04547   21.42727
    4983      444        1     0.00000   38.09748   46.17023   21.40045
    4984      444        1     0.00000   38.11930   32.97160    8.27596
    4985      444        1     0.00000   27.61754   32.72370    8.27254
    4986      444        1     0.00000   27.62043   45.85819   21.39546
    4987      444        1     0.00000   40.77674   32.70688   21.38047
    4988      444        1     0.00000   40.75466   45.86213    8.28174
    4989      444        1     0.00000   27.61912   46.18337   18.01773
    4990      444        1     0.00000   27.61071   32.99473    4.84854
    4991      444        1     0.00000   40.75807   46.15393    4.86668
    4992      444        1     0.00000   40.77253   33.04862   18.00905
    4993      444        1     0.00000   44.31667   46.17785    1.32885
    4994      444        1     0.00000   44.32271   33.05887   14.46728
    4995      444        1     0.00000   31.14774   46.14604   14.45388
    4996      444        1     0.00000   31.16378   33.00604    1.30204
    4997      444        1     0.00000   34.56833   32.70793    1.29573
    4998      444        1     0.00000   34.57779   45.86713   14.45861
    4999      444        1     0.00000   47.68494   32.71109   14.47464
    5000      444        1     0.00000   47.68625   45.84741    1.33595
    5001      444        1     0.00000   34.56833   46.14578   24.96825
    5002      444        1     0.00000   34.57779   32.97318   11.82798
    5003      444        1     0.00000   47.69282   46.16812   11.80432
    5004      444        1     0.00000   47.69861   33.04389   24.96036
    5005      444        1     0.00000   44.32350   32.70530   24.94301
    5006      444        1     0.00000   44.30168   45.85793   11.81957
    5007      444        1     0.00000   31.13618   32.72633   11.82693
    5008      444        1     0.00000   31.14748   45.86292   24.96982
    5009      444        1     0.00000   27.61991   44.29537   19.83396
    5010      444        1     0.00000   27.61386   31.15694    6.71209
    5011      444        1     0.00000   40.75729   44.30116    6.71630
    5012      444        1     0.00000   40.77910   31.14853   19.81319
    5013      444        1     0.00000   27.61281   34.56018    6.40899
    5014      444        1     0.00000   27.62411   47.74514   19.58081
    5015      444        1     0.00000   40.76806   34.60513   19.57923
    5016      444        1     0.00000   40.75413   47.71569    6.43186
    5017      444        1     0.00000   51.24879   34.60408   19.85841
    5018      444        1     0.00000   51.26114   47.71017    6.71235
    5019      444        1     0.00000   38.11719   34.54099    6.72024
    5020      444        1     0.00000   38.09616   47.73672   19.84000
    5021      444        1     0.00000   51.25799   44.30668    6.42555
    5022      444        1     0.00000   51.24116   31.17824   19.59500
    5023      444        1     0.00000   38.10142   44.28460   19.58738
    5024      444        1     0.00000   38.11325   31.15773    6.38796
    5025      444        1     0.00000   46.14736   27.60492   18.02325
    5026      444        1     0.00000   46.16155   40.74467    4.88324
    5027      444        1     0.00000   33.00446   27.60598    4.84407
    5028      444        1     0.00000   33.00314   40.74046   17.98382
    5029      444        1     0.00000   32.73711   27.62201    8.27464
    5030      444        1     0.00000   32.73895   40.76517   21.41649
    5031      444        1     0.00000   45.85188   27.57522   21.42464
    5032      444        1     0.00000   45.85346   40.74835    8.27806
    5033      444        1     0.00000   46.17128   51.27402    8.24573
    5034      444        1     0.00000   46.16076   38.16582   21.43936
    5035      444        1     0.00000   32.98527   51.27823   21.45540
    5036      444        1     0.00000   33.01156   38.09353    8.28095
    5037      444        1     0.00000   32.76392   51.26982   17.97935
    5038      444        1     0.00000   32.72817   38.10300    4.85984
    5039      444        1     0.00000   45.83374   51.28428    4.87903
    5040      444        1     0.00000   45.85477   38.16740   18.00458
    5041      444        1     0.00000   46.18022   44.32403   24.98533
    5042      444        1     0.00000   46.17864   31.19007   11.84138
    5043      444        1     0.00000   33.00130   44.28775   11.81878
    5044      444        1     0.00000   33.01182   31.16325   24.94143
    5045      444        1     0.00000   32.72160   34.57963   24.96036
    5046      444        1     0.00000   32.73369   47.71464   11.81089
    5047      444        1     0.00000   45.83164   34.54756   11.82193
    5048      444        1     0.00000   45.83874   47.69309   24.97955
    5049      444        1     0.00000   46.16523   34.55360    1.31150
    5050      444        1     0.00000   46.16471   47.72253   14.44257
    5051      444        1     0.00000   32.98816   34.57779   14.46334
    5052      444        1     0.00000   33.00341   47.70623    1.32570
    5053      444        1     0.00000   32.71845   44.29091    1.31992
    5054      444        1     0.00000   32.72081   31.13697   14.47622
    5055      444        1     0.00000   45.85556   44.32902   14.45913
    5056      444        1     0.00000   45.83821   31.18297    1.29284
    5057      444        1     0.00000   44.33270   27.63226    6.39506
    5058      444        1     0.00000   44.30957   40.80040   19.58396
    5059      444        1     0.00000   31.12303   27.62070   19.61051
    5060      444        1     0.00000   31.15773   40.74046    6.43475
    5061      444        1     0.00000   34.60408   27.63069   19.81871
    5062      444        1     0.00000   34.58147   40.73836    6.71393
    5063      444        1     0.00000   47.69230   27.62096    6.74600
    5064      444        1     0.00000   47.70991   40.79777   19.85919
    5065      444        1     0.00000   34.58147   51.25825    6.43002
    5066      444        1     0.00000   34.57621   38.10221   19.58580
    5067      444        1     0.00000   47.71964   51.25063   19.55636
    5068      444        1     0.00000   47.69808   38.10273    6.42844
    5069      444        1     0.00000   44.31535   51.22329   19.84868
    5070      444        1     0.00000   44.30352   38.11220    6.72970
    5071      444        1     0.00000   31.15326   51.26666    6.70552
    5072      444        1     0.00000   31.14249   38.12587   19.85367
    5073      444        1     0.00000   27.61123   46.15998    8.27333
    5074      444        1     0.00000   27.60045   33.02286   21.43331
    5075      444        1     0.00000   40.73599   46.13342   21.43568
    5076      444        1     0.00000   40.75492   33.00130    8.23863
    5077      444        1     0.00000   27.59599   32.74947   18.00143
    5078      444        1     0.00000   27.61097   45.85346    4.86799
    5079      444        1     0.00000   40.74440   32.69295    4.85353
    5080      444        1     0.00000   40.73941   45.88842   17.99012
    5081      444        1     0.00000   51.26719   46.14263   17.98382
    5082      444        1     0.00000   51.25851   33.00919    4.87325
    5083      444        1     0.00000   38.11982   46.14578    4.86274
    5084      444        1     0.00000   38.13218   32.99789   17.96541
    5085      444        1     0.00000   51.26824   32.70925    8.27070
    5086      444        1     0.00000   51.27218   45.89788   21.43095
    5087      444        1     0.00000   38.13901   32.75157   21.42806
    5088      444        1     0.00000   38.11614   45.86056    8.28332
    5089      444        2     0.00000   33.61960   33.61749   -0.01551
    5090      444        2     0.00000   33.61933   46.75434   13.13475
    5091      444        2     0.00000   46.76092   33.63221   13.14842
    5092      444        2     0.00000   46.75487   46.76276    0.01367
    5093      444        2     0.00000   45.25068   45.25199    0.01236
    5094      444        2     0.00000   45.25278   32.12697   13.15447
    5095      444        2     0.00000   32.10725   45.24936   13.13633
    5096      444        2     0.00000   32.11093   32.10830   -0.02182
    5097      444        2     0.00000   45.24831   33.62564   -0.01682
    5098      444        2     0.00000   45.24542   46.77800   13.13107
    5099      444        2     0.00000   32.10305   33.61066   13.14526
    5100      444        2     0.00000   32.10462   46.75618    0.00447
    5101      444        2     0.00000   33.61355   45.24831    0.00000
    5102      444        2     0.00000   33.60724   32.09805   13.15131
    5103      444        2     0.00000   46.75382   45.26908   13.13159
    5104      444        2     0.00000   46.75987   32.12092   -0.01682
    5105      444        2     0.00000   26.29605   33.61407    7.31960
    5106      444        2     0.00000   26.30341   46.77091   20.45540
    5107      444        2     0.00000   39.45367   33.62249   20.44778
    5108      444        2     0.00000   39.43527   46.75987    7.32933
    5109      444        2     0.00000   26.29973   45.26040   18.95016
    5110      444        2     0.00000   26.29237   32.10305    5.81304
    5111      444        2     0.00000   39.43868   45.25304    5.81935
    5112      444        2     0.00000   39.45551   32.11987   18.93596
    5113      444        2     0.00000   26.29027   45.25620    7.32591
    5114      444        2     0.00000   26.27765   32.14222   20.47249
    5115      444        2     0.00000   39.41897   45.25856   20.46276
    5116      444        2     0.00000   39.43422   32.09253    7.30041
    5117      444        2     0.00000   26.27765   33.64720   18.96067
    5118      444        2     0.00000   26.29132   46.76013    5.81304
    5119      444        2     0.00000   39.43106   33.60593    5.79753
    5120      444        2     0.00000   39.41871   46.76933   18.95673
    5121      444        2     0.00000   33.62590   26.29605    7.31908
    5122      444        2     0.00000   33.62222   39.43369   20.46644
    5123      444        2     0.00000   46.76486   26.26976   20.47039
    5124      444        2     0.00000   46.76118   39.42580    7.33879
    5125      444        2     0.00000   45.25725   26.27081   18.96094
    5126      444        2     0.00000   45.25436   39.42817    5.82855
    5127      444        2     0.00000   32.11619   26.29263    5.81225
    5128      444        2     0.00000   32.11251   39.43316   18.95778
    5129      444        2     0.00000   33.62038   26.30630   18.96225
    5130      444        2     0.00000   33.62249   39.42028    5.81909
    5131      444        2     0.00000   46.76197   26.30814    5.81252
    5132      444        2     0.00000   46.78352   39.46786   18.94884
    5133      444        2     0.00000   45.25383   26.30946    7.31803
    5134      444        2     0.00000   45.23412   39.46708   20.49457
    5135      444        2     0.00000   32.11382   26.30525   20.47407
    5136      444        2     0.00000   32.11435   39.41739    7.32775
    5137      444        3     0.00000   34.80071   30.95164   23.35154
    5138      444        3     0.00000   34.10566   31.63591   24.47325
    5139      444        3     0.00000   34.78862   44.06772   10.22704
    5140      444        3     0.00000   34.09672   44.75515   11.34822
    5141      444        3     0.00000   44.07245   47.90497   23.37441
    5142      444        3     0.00000   44.75016   47.21833   24.50374
    5143      444        3     0.00000   44.05852   34.76838   10.22336
    5144      444        3     0.00000   44.73885   34.07438   11.35033
    5145      444        3     0.00000   30.93402   34.80649   23.37283
    5146      444        3     0.00000   31.62750   34.11197   24.48849
    5147      444        3     0.00000   44.06614   30.95032    2.88667
    5148      444        3     0.00000   44.74411   31.64905    1.76497
    5149      444        3     0.00000   44.08980   44.12030   16.06690
    5150      444        3     0.00000   44.76698   44.80273   14.93494
    5151      444        3     0.00000   30.93008   30.93560   16.07321
    5152      444        3     0.00000   31.62776   31.61173   14.94599
    5153      444        3     0.00000   34.78809   47.92468    2.91796
    5154      444        3     0.00000   34.09777   47.23673    1.79546
    5155      444        3     0.00000   34.77784   34.79098   16.05297
    5156      444        3     0.00000   34.08147   34.10645   14.93416
    5157      444        3     0.00000   49.65679   34.78126    4.65795
    5158      444        3     0.00000   50.78507   34.10093    5.34486
    5159      444        3     0.00000   36.52809   34.78336   17.76589
    5160      444        3     0.00000   37.65794   34.08910   18.44017
    5161      444        3     0.00000   49.67414   44.11662   21.64940
    5162      444        3     0.00000   50.79848   44.80378   20.96486
    5163      444        3     0.00000   49.67414   30.93113    8.50545
    5164      444        3     0.00000   50.79453   31.61488    7.80567
    5165      444        3     0.00000   36.52257   44.07429    8.49783
    5166      444        3     0.00000   37.64559   44.76698    7.81145
    5167      444        3     0.00000   29.20717   44.07272    4.65348
    5168      444        3     0.00000   28.08363   44.76198    5.34144
    5169      444        3     0.00000   42.35007   44.11530   17.78876
    5170      444        3     0.00000   41.21522   44.79721   18.46252
    5171      444        3     0.00000   42.33982   30.92035    4.62089
    5172      444        3     0.00000   41.21759   31.59884    5.31831
    5173      444        3     0.00000   29.19771   34.80413   21.64703
    5174      444        3     0.00000   28.07390   34.11539   20.96171
    5175      444        3     0.00000   42.34586   34.77837    8.47312
    5176      444        3     0.00000   41.22679   34.09541    7.77333
    5177      444        3     0.00000   30.93902   49.67230    8.48941
    5178      444        3     0.00000   31.62408   50.79585    7.79936
    5179      444        3     0.00000   30.91904   36.54518   21.64809
    5180      444        3     0.00000   31.60936   37.66005   20.95146
    5181      444        3     0.00000   47.94782   49.66836   17.76536
    5182      444        3     0.00000   47.25303   50.78428   18.45936
    5183      444        3     0.00000   47.91864   36.50574    4.65059
    5184      444        3     0.00000   47.22779   37.63060    5.33513
    5185      444        3     0.00000   34.79151   49.65548    4.65164
    5186      444        3     0.00000   34.10829   50.78244    5.33934
    5187      444        3     0.00000   30.90484   29.21322   17.81610
    5188      444        3     0.00000   31.58517   28.09178   18.51615
    5189      444        3     0.00000   30.93823   42.33955    4.65322
    5190      444        3     0.00000   31.62697   41.21496    5.34170
    5191      444        3     0.00000   47.92705   29.21243    8.52385
    5192      444        3     0.00000   47.22385   28.09309    7.83905
    5193      444        3     0.00000   47.93047   42.39581   21.63757
    5194      444        3     0.00000   47.23725   41.27437   20.94856
    5195      444        3     0.00000   34.79545   42.33719    8.49493
    5196      444        3     0.00000   34.11118   41.21049    7.80698
    5197      444        3     0.00000   30.94690   34.78021    2.90376
    5198      444        3     0.00000   31.63486   34.09646    1.77864
    5199      444        3     0.00000   30.94270   47.93520   16.04745
    5200      444        3     0.00000   31.62171   47.23909   14.92338
    5201      444        3     0.00000   47.91390   44.07298    2.93031
    5202      444        3     0.00000   47.21806   44.75436    1.80782
    5203      444        3     0.00000   47.89918   30.94822   16.08662
    5204      444        3     0.00000   47.20939   31.62303   14.95466
    5205      444        3     0.00000   34.78625   30.92535    2.88378
    5206      444        3     0.00000   34.09777   31.61330    1.76339
    5207      444        3     0.00000   30.93744   44.08691   23.36311
    5208      444        3     0.00000   31.61935   44.77197   24.49349
    5209      444        3     0.00000   30.93008   30.94296   10.22836
    5210      444        3     0.00000   31.60621   31.63092   11.35769
    5211      444        3     0.00000   47.92179   34.82490   23.37178
    5212      444        3     0.00000   47.22726   34.13668   24.49060
    5213      444        3     0.00000   47.91522   47.94045   10.20260
    5214      444        3     0.00000   47.22306   47.25934   11.32877
    5215      444        3     0.00000   34.79782   34.75760   10.22915
    5216      444        3     0.00000   34.11144   34.06780   11.35296
    5217      444        3     0.00000   34.77232   49.68019   21.66202
    5218      444        3     0.00000   34.07727   50.80636   20.98773
    5219      444        3     0.00000   34.79361   36.49181    8.49678
    5220      444        3     0.00000   34.10461   37.62009    7.81014
    5221      444        3     0.00000   44.06062   49.69044    4.65138
    5222      444        3     0.00000   44.74095   50.81293    5.34722
    5223      444        3     0.00000   44.07981   36.57409   17.78587
    5224      444        3     0.00000   44.76251   37.69501   18.47566
    5225      444        3     0.00000   30.94480   36.50890    4.63719
    5226      444        3     0.00000   31.63433   37.63008    5.32829
    5227      444        3     0.00000   44.08244   29.17983   21.63152
    5228      444        3     0.00000   44.76093   28.04840   20.95172
    5229      444        3     0.00000   44.07981   42.34954    8.49283
    5230      444        3     0.00000   44.76330   41.22363    7.80488
    5231      444        3     0.00000   30.95164   29.21926    8.48810
    5232      444        3     0.00000   31.64406   28.09414    7.80356
    5233      444        3     0.00000   34.78678   29.20086    4.61984
    5234      444        3     0.00000   34.09856   28.07968    5.31121
    5235      444        3     0.00000   34.79046   42.33325   17.76747
    5236      444        3     0.00000   34.09909   41.20970   18.45121
    5237      444        3     0.00000   49.63445   30.95926   17.81978
    5238      444        3     0.00000   50.76535   31.64537   18.50116
    5239      444        3     0.00000   36.51626   30.93639    4.61379
    5240      444        3     0.00000   37.63796   31.63013    5.29859
    5241      444        3     0.00000   49.65758   47.93073    8.48258
    5242      444        3     0.00000   50.78586   47.24199    7.80461
    5243      444        3     0.00000   36.50417   47.94782   21.63415
    5244      444        3     0.00000   37.62508   47.26433   20.93411
    5245      444        3     0.00000   36.52835   34.76049    8.50124
    5246      444        3     0.00000   37.64822   34.06833    7.81224
    5247      444        3     0.00000   29.21085   30.94191    8.48915
    5248      444        3     0.00000   28.08810   31.62934    7.80277
    5249      444        3     0.00000   42.37320   30.93061   21.60497
    5250      444        3     0.00000   41.25097   31.61646   20.90887
    5251      444        3     0.00000   29.22242   47.95465   17.79112
    5252      444        3     0.00000   28.09519   47.27511   18.48670
    5253      444        3     0.00000   29.21164   34.77653    4.63167
    5254      444        3     0.00000   28.08520   34.08831    5.31699
    5255      444        3     0.00000   42.34560   47.94440    4.64770
    5256      444        3     0.00000   41.22679   47.24856    5.33723
    5257      444        3     0.00000   44.08297   47.95912    2.91822
    5258      444        3     0.00000   44.78275   47.27222    1.79914
    5259      444        3     0.00000   44.10347   34.83357   16.06532
    5260      444        3     0.00000   44.79668   34.15114   14.93889
    5261      444        3     0.00000   34.78967   44.08139   16.05455
    5262      444        3     0.00000   34.10513   44.77487   14.93179
    5263      444        3     0.00000   34.78205   47.93441   23.37757
    5264      444        3     0.00000   34.09725   47.24014   24.49953
    5265      444        3     0.00000   44.10768   30.93166   23.34076
    5266      444        3     0.00000   44.79826   31.61646   24.46773
    5267      444        3     0.00000   44.08139   44.07561   10.22915
    5268      444        3     0.00000   44.77197   44.76382   11.35033
    5269      444        3     0.00000   29.21453   44.08087   21.62259
    5270      444        3     0.00000   28.09178   44.76461   20.92753
    5271      444        3     0.00000   42.34928   44.08008    8.49914
    5272      444        3     0.00000   41.22758   44.76987    7.81092
    5273      444        3     0.00000   42.36532   34.82936   17.79375
    5274      444        3     0.00000   41.24230   34.14062   18.48381
    5275      444        3     0.00000   49.65548   34.82384   21.64546
    5276      444        3     0.00000   50.77902   34.13720   20.95540
    5277      444        3     0.00000   49.65469   44.08586    4.65401
    5278      444        3     0.00000   50.78244   44.77565    5.33381
    5279      444        3     0.00000   36.51416   44.06877   17.79297
    5280      444        3     0.00000   37.63060   44.75489   18.49249
    5281      444        3     0.00000   47.90812   29.22216   17.82214
    5282      444        3     0.00000   47.23410   28.08468   18.50011
    5283      444        3     0.00000   47.93336   42.34350    4.66321
    5284      444        3     0.00000   47.25303   41.21759    5.35379
    5285      444        3     0.00000   30.95427   42.36111   21.62811
    5286      444        3     0.00000   31.64616   41.23730   20.94488
    5287      444        3     0.00000   47.93362   49.66678    8.46444
    5288      444        3     0.00000   47.25986   50.79637    7.77307
    5289      444        3     0.00000   47.92915   36.55543   21.64546
    5290      444        3     0.00000   47.24724   37.68844   20.96434
    5291      444        3     0.00000   30.97372   49.66941   17.77377
    5292      444        3     0.00000   31.67140   50.79506   18.44990
    5293      444        3     0.00000   47.95071   44.11372   23.38466
    5294      444        3     0.00000   47.27038   44.79826   24.51347
    5295      444        3     0.00000   47.95307   30.95374   10.24729
    5296      444        3     0.00000   47.27248   31.65747   11.36715
    5297      444        3     0.00000   30.94822   47.93572   10.21653
    5298      444        3     0.00000   31.63880   47.24751   11.33929
    5299      444        3     0.00000   47.93520   34.77416    2.91664
    5300      444        3     0.00000   47.25644   34.08358    1.78653
    5301      444        3     0.00000   47.94966   47.94151   16.03062
    5302      444        3     0.00000   47.25855   47.25171   14.91155
    5303      444        3     0.00000   30.93849   44.07166    2.92032
    5304      444        3     0.00000   31.62540   44.75988    1.79467
    5305      444        3     0.00000   44.09979   29.21821    4.61616
    5306      444        3     0.00000   44.80299   28.10282    5.30174
    5307      444        3     0.00000   44.10321   42.40370   17.81268
    5308      444        3     0.00000   44.78459   41.27647   18.49774
    5309      444        3     0.00000   34.81780   29.22741   21.61076
    5310      444        3     0.00000   34.13799   28.10334   20.91386
    5311      444        3     0.00000   34.78468   36.50469   17.80138
    5312      444        3     0.00000   34.10329   37.62824   18.49459
    5313      444        3     0.00000   44.09716   49.61999   21.62443
    5314      444        3     0.00000   44.78670   50.74616   20.93963
    5315      444        3     0.00000   44.07561   36.51074    8.50072
    5316      444        3     0.00000   44.77013   37.63639    7.82223
    5317      444        3     0.00000   29.20927   47.93914    8.48889
    5318      444        3     0.00000   28.08468   47.25119    7.80041
    5319      444        3     0.00000   42.34718   47.90497   21.64073
    5320      444        3     0.00000   41.21312   47.22464   20.96434
    5321      444        3     0.00000   29.18667   30.95768   17.79507
    5322      444        3     0.00000   28.06470   31.65589   18.47487
    5323      444        3     0.00000   49.67493   47.93125   17.76589
    5324      444        3     0.00000   50.79716   47.23778   18.45069
    5325      444        3     0.00000   36.52257   47.92468    4.64639
    5326      444        3     0.00000   37.64559   47.23725    5.33355
    5327      444        3     0.00000   36.54228   30.96452   21.63336
    5328      444        3     0.00000   37.66688   31.65904   20.95540
    5329      444        3     0.00000   35.95685   31.51656   22.78583
    5330      444        4     0.00000   36.37483   32.41850   23.21484
    5331      444        3     0.00000   35.94502   44.62923    9.65423
    5332      444        4     0.00000   36.36694   45.53169   10.08010
    5333      444        3     0.00000   42.91342   47.35318   22.80265
    5334      444        4     0.00000   42.47809   46.46150   23.23640
    5335      444        3     0.00000   42.90948   34.21344    9.63294
    5336      444        4     0.00000   42.48098   33.31124   10.05144
    5337      444        3     0.00000   29.79076   47.37710    9.64161
    5338      444        4     0.00000   29.36832   46.47412   10.06485
    5339      444        3     0.00000   42.90238   31.48817    3.46264
    5340      444        4     0.00000   42.46416   32.38354    3.03862
    5341      444        3     0.00000   42.92209   44.66761   16.62867
    5342      444        4     0.00000   42.48125   45.55325   16.18677
    5343      444        3     0.00000   29.78366   44.63133    3.49734
    5344      444        4     0.00000   29.35964   45.53353    3.07384
    5345      444        3     0.00000   35.94739   47.36817    3.48919
    5346      444        4     0.00000   36.37641   46.47201    3.05965
    5347      444        3     0.00000   35.94870   34.23920   16.60607
    5348      444        4     0.00000   36.38298   33.35435   16.16075
    5349      444        3     0.00000   49.07215   35.93214    5.21657
    5350      444        4     0.00000   49.49013   36.35564    6.12166
    5351      444        3     0.00000   49.10028   49.08740   18.32714
    5352      444        4     0.00000   49.52062   49.50721   19.23302
    5353      444        3     0.00000   35.94739   35.92846   18.34527
    5354      444        4     0.00000   36.37536   36.34512   19.24826
    5355      444        3     0.00000   49.08871   42.96889   21.08184
    5356      444        4     0.00000   49.51116   42.54381   20.17964
    5357      444        3     0.00000   49.08608   29.77683    7.95603
    5358      444        4     0.00000   49.50432   29.34623    7.05436
    5359      444        3     0.00000   35.97263   29.81048   21.06265
    5360      444        4     0.00000   36.40112   29.39276   20.15940
    5361      444        3     0.00000   29.78209   42.91579    5.21158
    5362      444        4     0.00000   29.35649   42.49071    6.11220
    5363      444        3     0.00000   29.74923   29.79865   18.36315
    5364      444        4     0.00000   29.31469   29.37909   19.26193
    5365      444        3     0.00000   29.76421   35.96605   21.09157
    5366      444        4     0.00000   29.33572   36.39165   20.19305
    5367      444        3     0.00000   29.78156   49.09739    7.93316
    5368      444        4     0.00000   29.35254   49.52561    7.03543
    5369      444        3     0.00000   31.50342   49.09344    9.64161
    5370      444        4     0.00000   32.40562   49.51773   10.06485
    5371      444        3     0.00000   44.64421   49.05164   22.78951
    5372      444        4     0.00000   45.54536   49.47593   23.21511
    5373      444        3     0.00000   44.62082   35.93056    9.66054
    5374      444        4     0.00000   45.51461   36.35774   10.09823
    5375      444        3     0.00000   47.39419   49.09975   16.60423
    5376      444        4     0.00000   46.49515   49.52877   16.17705
    5377      444        3     0.00000   47.37001   35.93004    3.48946
    5378      444        4     0.00000   46.47254   36.35643    3.05781
    5379      444        3     0.00000   34.22947   49.07925    3.49708
    5380      444        4     0.00000   33.32701   49.50301    3.07463
    5381      444        3     0.00000   31.47477   29.77867   16.65943
    5382      444        4     0.00000   32.37407   29.34518   16.24040
    5383      444        3     0.00000   44.64895   29.80732    3.46501
    5384      444        4     0.00000   45.56350   29.40512    3.04966
    5385      444        3     0.00000   47.38105   29.79917    9.67947
    5386      444        4     0.00000   46.47753   29.38277   10.10875
    5387      444        3     0.00000   34.25024   29.79576   22.76769
    5388      444        4     0.00000   33.34909   29.36621   23.18698
    5389      444        3     0.00000   31.50473   35.93530    3.48131
    5390      444        4     0.00000   32.40641   36.36090    3.05807
    5391      444        3     0.00000   44.64790   35.99681   16.63525
    5392      444        4     0.00000   45.54536   36.42767   16.20886
    5393      444        3     0.00000   47.36528   42.91526    3.50943
    5394      444        4     0.00000   46.46518   42.48598    3.08778
    5395      444        3     0.00000   34.23289   42.91815   16.61632
    5396      444        4     0.00000   33.33385   42.49386   16.18520
    5397      444        3     0.00000   34.22737   29.77210    3.46317
    5398      444        4     0.00000   33.32412   29.34702    3.04204
    5399      444        3     0.00000   31.50526   42.93682   22.78635
    5400      444        4     0.00000   32.40720   42.51437   23.21274
    5401      444        3     0.00000   31.50184   29.79497    9.64766
    5402      444        4     0.00000   32.40536   29.37568   10.07326
    5403      444        3     0.00000   44.64159   42.92367    9.64819
    5404      444        4     0.00000   45.54563   42.50096   10.06879
    5405      444        3     0.00000   47.36002   35.97447   22.79187
    5406      444        4     0.00000   46.44835   36.38981   23.20486
    5407      444        3     0.00000   34.23394   35.91085    9.65003
    5408      444        4     0.00000   33.32754   36.33014   10.06905
    5409      444        3     0.00000   35.92478   49.10790   21.08973
    5410      444        4     0.00000   36.34355   49.53692   20.18779
    5411      444        3     0.00000   35.95133   35.91663    7.94000
    5412      444        4     0.00000   36.37614   36.34144    7.03832
    5413      444        3     0.00000   42.91000   49.10475    5.20711
    5414      444        4     0.00000   42.48177   49.52561    6.10826
    5415      444        3     0.00000   42.92630   35.99392   18.34396
    5416      444        4     0.00000   42.49071   36.42399   19.23775
    5417      444        3     0.00000   29.78708   35.93240    5.19265
    5418      444        4     0.00000   29.36043   36.35748    6.09275
    5419      444        3     0.00000   42.93340   29.76053   21.06476
    5420      444        4     0.00000   42.50254   29.32862   20.17044
    5421      444        3     0.00000   42.92525   42.92709    7.93605
    5422      444        4     0.00000   42.50044   42.50517    7.03333
    5423      444        3     0.00000   29.79602   29.79260    7.92580
    5424      444        4     0.00000   29.37831   29.37094    7.01992
    5425      444        3     0.00000   35.94134   29.78156    5.17793
    5426      444        4     0.00000   36.36431   29.36306    6.08302
    5427      444        3     0.00000   35.94423   42.90422   18.33423
    5428      444        4     0.00000   36.37115   42.46915   19.22986
    5429      444        3     0.00000   49.05480   31.51393   16.66206
    5430      444        4     0.00000   49.47751   32.41508   16.23488
    5431      444        3     0.00000   49.06952   44.64027    3.50076
    5432      444        4     0.00000   49.48750   45.54379    3.07463
    5433      444        3     0.00000   35.94108   31.48791    3.45660
    5434      444        4     0.00000   36.36405   32.38880    3.02968
    5435      444        3     0.00000   49.07399   47.37710    9.63636
    5436      444        4     0.00000   49.49565   46.47753   10.06748
    5437      444        3     0.00000   49.08503   34.27285   22.80580
    5438      444        4     0.00000   49.52009   33.38011   23.24245
    5439      444        3     0.00000   35.95554   34.20292    9.65739
    5440      444        4     0.00000   36.38351   33.30414   10.08430
    5441      444        3     0.00000   29.77499   31.49711    9.65055
    5442      444        4     0.00000   29.34150   32.39274   10.07904
    5443      444        3     0.00000   29.78235   44.64159   22.78215
    5444      444        4     0.00000   29.35175   45.54090   23.20722
    5445      444        3     0.00000   29.78366   47.39051   16.62999
    5446      444        4     0.00000   29.34545   46.49515   16.20570
    5447      444        3     0.00000   29.79155   34.21817    3.47789
    5448      444        4     0.00000   29.36963   33.31571    3.05308
    5449      444        3     0.00000   42.92867   47.39051    3.49208
    5450      444        4     0.00000   42.51148   46.48621    3.06675
    5451      444        3     0.00000   42.95338   34.26470   16.64576
    5452      444        4     0.00000   42.54013   33.35382   16.22831
    5453      444        3     0.00000   35.93898   44.63948   16.64182
    5454      444        4     0.00000   36.35853   45.55010   16.23146
    5455      444        3     0.00000   35.93451   47.37973   22.79029
    5456      444        4     0.00000   36.36090   46.47517   23.20617
    5457      444        3     0.00000   42.96021   31.50026   22.75244
    5458      444        4     0.00000   42.55065   32.41587   23.16095
    5459      444        3     0.00000   42.92341   44.63423    9.65765
    5460      444        4     0.00000   42.49623   45.53275   10.08693
    5461      444        3     0.00000   29.79733   42.92972   21.06555
    5462      444        4     0.00000   29.37541   42.50280   20.16308
    5463      444        3     0.00000   29.81731   49.10264   18.34580
    5464      444        4     0.00000   29.40670   49.52798   19.25273
    5465      444        3     0.00000   49.07609   35.97236   21.08079
    5466      444        4     0.00000   49.49065   36.38745   20.16729
    5467      444        3     0.00000   49.08818   49.08450    7.91450
    5468      444        4     0.00000   49.51852   49.50564    7.01440
    5469      444        3     0.00000   49.08871   42.92577    5.21552
    5470      444        4     0.00000   49.52272   42.50044    6.11115
    5471      444        3     0.00000   49.05822   29.80654   18.38392
    5472      444        4     0.00000   49.48093   29.38803   19.28927
    5473      444        3     0.00000   47.34503   29.79418   16.66705
    5474      444        4     0.00000   46.44599   29.36542   16.24224
    5475      444        3     0.00000   44.65184   29.76421   22.77794
    5476      444        4     0.00000   45.55088   29.33651   23.20512
    5477      444        3     0.00000   47.36317   49.09476    9.61822
    5478      444        4     0.00000   46.46045   49.52272   10.03725
    5479      444        3     0.00000   34.22027   49.09528   22.81501
    5480      444        4     0.00000   33.32123   49.51668   23.24718
    5481      444        3     0.00000   31.51788   49.08582   16.61763
    5482      444        4     0.00000   32.42113   49.50169   16.18704
    5483      444        3     0.00000   44.62792   49.12052    3.49471
    5484      444        4     0.00000   45.52670   49.55164    3.07122
    5485      444        3     0.00000   47.37973   42.96652   22.80028
    5486      444        4     0.00000   46.47937   42.54039   23.22720
    5487      444        3     0.00000   34.23315   42.91158    9.64976
    5488      444        4     0.00000   33.33148   42.48598   10.07247
    5489      444        3     0.00000   31.48055   35.97263   22.80528
    5490      444        4     0.00000   32.37539   36.40480   23.23535
    5491      444        3     0.00000   34.21502   35.93372   16.64813
    5492      444        4     0.00000   33.30361   36.35222   16.23935
    5493      444        3     0.00000   31.49737   42.91605    3.49682
    5494      444        4     0.00000   32.39905   42.49176    3.07200
    5495      444        3     0.00000   44.66419   42.98019   16.65969
    5496      444        4     0.00000   45.57218   42.56510   16.24382
    5497      444        3     0.00000   42.93261   29.77184    5.17504
    5498      444        4     0.00000   42.51253   29.33835    6.07461
    5499      444        3     0.00000   42.93971   42.97230   18.36341
    5500      444        4     0.00000   42.51516   42.55038   19.26535
    5501      444        3     0.00000   35.94923   42.91815    7.93632
    5502      444        4     0.00000   36.37483   42.49649    7.03385
    5503      444        3     0.00000   35.94686   49.07846    5.20842
    5504      444        4     0.00000   36.37089   49.50090    6.11115
    5505      444        3     0.00000   42.94207   49.04323   21.06397
    5506      444        4     0.00000   42.52804   49.45832   20.15309
    5507      444        3     0.00000   42.92709   35.93582    7.92554
    5508      444        4     0.00000   42.51121   36.36353    7.02124
    5509      444        3     0.00000   29.78577   34.23894   22.79187
    5510      444        4     0.00000   29.37831   33.32386   23.20223
    5511      444        3     0.00000   29.77578   31.50815   16.64129
    5512      444        4     0.00000   29.36201   32.41272   16.21227
    5513      444        3     0.00000   49.09896   47.37605   16.61027
    5514      444        4     0.00000   49.51773   46.47017   16.18967
    5515      444        3     0.00000   49.08766   34.21896    3.50050
    5516      444        4     0.00000   49.51641   33.31807    3.07831
    5517      444        3     0.00000   49.11158   31.49816    9.66422
    5518      444        4     0.00000   49.54717   32.39458   10.08640
    5519      444        3     0.00000   49.10790   44.66840   22.81185
    5520      444        4     0.00000   49.54296   45.55930   23.24586
    5521      385        5     0.00000   40.44604   45.11950   13.28170
    5522      385        6     0.00000   41.28042   44.83585   12.83034
    5523      385        6     0.00000   40.14583   45.91392   12.77198
    5524      386        5     0.00000   32.05915   37.40321   12.84190
    5525      386        6     0.00000   31.37487   36.90348   12.32955
    5526      386        6     0.00000   32.69794   37.72287   12.15631
    5527      387        5     0.00000   38.86114   38.26414   10.79723
    5528      387        6     0.00000   38.64873   38.33775   11.76147
    5529      387        6     0.00000   39.00730   37.29596   10.64818
    5530      388        5     0.00000   49.39286   43.56589    9.05092
    5531      388        6     0.00000   48.81794   44.01777    8.38321
    5532      388        6     0.00000   49.44228   42.62688    8.74099
    5533      389        5     0.00000   49.07005   29.58467   23.59102
    5534      389        6     0.00000   48.43283   30.33860   23.51637
    5535      389        6     0.00000   48.78824   29.10097   24.40779
    5536      390        5     0.00000   45.66971   46.81954   18.41231
    5537      390        6     0.00000   46.51854   46.35924   18.63207
    5538      390        6     0.00000   44.96256   46.19704   18.71725
    5539      391        5     0.00000   51.82975   43.29223   26.15068
    5540      391        6     0.00000   50.87418   43.50858   26.29552
    5541      391        6     0.00000   51.89652   43.09822   25.18197
    5542      392        5     0.00000   50.73933   38.91924    6.88454
    5543      392        6     0.00000   51.07318   39.78831    6.54674
    5544      392        6     0.00000   51.55609   38.41740    7.13217
    5545      393        5     0.00000   31.40852   34.38904   18.04612
    5546      393        6     0.00000   31.16509   35.30807   18.32319
    5547      393        6     0.00000   31.88801   34.01365   18.82661
    5548      394        5     0.00000   52.07948   28.42116    2.39456
    5549      394        6     0.00000   52.85550   28.56259    2.99314
    5550      394        6     0.00000   51.28980   28.59309    2.96712
    5551      395        5     0.00000   30.12225   36.90217   15.63105
    5552      395        6     0.00000   30.65195   36.09486   15.41076
    5553      395        6     0.00000   29.25160   36.75732   15.18258
    5554      396        5     0.00000   46.76328   27.80182    1.22975
    5555      396        6     0.00000   47.44388   28.51422    1.12749
    5556      396        6     0.00000   45.96728   28.14961    0.75473
    5557      397        5     0.00000   39.75309   28.91248    0.23580
    5558      397        6     0.00000   39.21813   29.72688    0.41272
    5559      397        6     0.00000   40.69025   29.23162    0.21083
    5560      398        5     0.00000   38.50783   48.78482   11.78329
    5561      398        6     0.00000   39.29962   48.68309   11.19733
    5562      398        6     0.00000   37.79070   49.10264   11.17893
    5563      399        5     0.00000   31.93691   38.14637    0.27129
    5564      399        6     0.00000   31.57755   38.74784   -0.42849
    5565      399        6     0.00000   31.34701   37.35143    0.24316
    5566      400        5     0.00000   46.24778   45.81744    7.36745
    5567      400        6     0.00000   46.81954   45.71834    8.16975
    5568      400        6     0.00000   45.32218   45.78274    7.71760
    5569      401        5     0.00000   38.87586   50.20542   17.36263
    5570      401        6     0.00000   39.02833   51.14784   17.09975
    5571      401        6     0.00000   39.27649   50.13129   18.26510
    5572      402        5     0.00000   47.87526   35.04966    9.01544
    5573      402        6     0.00000   48.76484   34.69503    9.26701
    5574      402        6     0.00000   47.32453   34.24393    8.84851
    5575      403        5     0.00000   42.64134   51.98853    1.76129
    5576      403        6     0.00000   41.79461   51.95225    2.27338
    5577      403        6     0.00000   43.32982   52.21855    2.43505
    5578      404        5     0.00000   42.21548   39.74757   22.24850
    5579      404        6     0.00000   42.20996   38.79358   21.98299
    5580      404        6     0.00000   41.26149   40.01334   22.23930
    5581      405        5     0.00000   36.27704   43.59717    3.38956
    5582      405        6     0.00000   36.52362   43.85058    2.46449
    5583      405        6     0.00000   35.36485   43.96283    3.51206
    5584      406        5     0.00000   42.48992   36.44265   13.52434
    5585      406        6     0.00000   42.03908   35.61932   13.83874
    5586      406        6     0.00000   43.26909   36.11695   13.00778
    5587      407        5     0.00000   29.60464   28.10545    1.55151
    5588      407        6     0.00000   28.89277   27.43458    1.39668
    5589      407        6     0.00000   30.10043   27.76397    2.33778
    5590      408        5     0.00000   37.31305   34.75576   24.46326
    5591      408        6     0.00000   38.10063   34.16454   24.35863
    5592      408        6     0.00000   37.22971   34.88772   25.44117
    5593      409        5     0.00000   41.45838   51.58685   22.62915
    5594      409        6     0.00000   41.67053   51.76981   21.67937
    5595      409        6     0.00000   41.68735   52.42701   23.09997
    5596      410        5     0.00000   36.93029   30.72714   15.53615
    5597      410        6     0.00000   37.75179   31.23739   15.32322
    5598      410        6     0.00000   37.08592   29.83098   15.14551
    5599      411        5     0.00000   51.05347   48.86237   22.38678
    5600      411        6     0.00000   51.86235   49.24670   21.96459
    5601      411        6     0.00000   50.30085   49.36447   21.98457
    5602      412        5     0.00000   37.80463   29.76369    9.60034
    5603      412        6     0.00000   38.53412   30.04733    8.99414
    5604      412        6     0.00000   38.16845   29.90880   10.50964
    5605      413        5     0.00000   43.24281   40.15293   15.33768
    5606      413        6     0.00000   43.52934   39.68185   16.15996
    5607      413        6     0.00000   44.00962   40.05855   14.71807
    5608      414        5     0.00000   35.52152   42.10638   22.24061
    5609      414        6     0.00000   35.96973   42.86873   21.79477
    5610      414        6     0.00000   35.61695   42.29355   23.20827
    5611      415        5     0.00000   27.75135   33.31702   25.79264
    5612      415        6     0.00000   26.98479   33.91849   25.96798
    5613      415        6     0.00000   27.55340   32.91613   24.90910
    5614      416        5     0.00000   47.72700   47.74882    4.37457
    5615      416        6     0.00000   47.04824   47.05928    4.16427
    5616      416        6     0.00000   48.20439   47.89498    3.51942
    5617      417        5     0.00000   33.21713   31.85909    6.52045
    5618      417        6     0.00000   32.42560   31.70846    5.94422
    5619      417        6     0.00000   33.88563   32.27497    5.91951
    5620      418        5     0.00000   38.35720   36.70606    4.15480
    5621      418        6     0.00000   38.85877   37.06331    3.37931
    5622      418        6     0.00000   38.99074   36.08409    4.59250
    5623      419        5     0.00000   26.68090   50.84001   19.58711
    5624      419        6     0.00000   27.34494   50.67361   20.30241
    5625      419        6     0.00000   26.27554   51.71172   19.82371
    5626      420        5     0.00000   38.17345   51.39311    1.96476
    5627      420        6     0.00000   37.88507   52.26061    1.58385
    5628      420        6     0.00000   39.10457   51.28033    1.64746
    5629      421        5     0.00000   48.72830   26.82365   12.12345
    5630      421        6     0.00000   49.05979   25.89805   12.24228
    5631      421        6     0.00000   49.31137   27.37254   12.70599
    5632      422        5     0.00000   29.70612   49.59344    2.04835
    5633      422        6     0.00000   29.29471   49.14865    2.83147
    5634      422        6     0.00000   30.65695   49.31820    2.07780
    5635      423        5     0.00000   29.62620   41.34140   15.72858
    5636      423        6     0.00000   29.56337   42.32904   15.69230
    5637      423        6     0.00000   30.59097   41.15870   15.85555
    5638      424        5     0.00000   51.30084   50.10447   25.42802
    5639      424        6     0.00000   51.04006   49.15732   25.55315
    5640      424        6     0.00000   52.02402   50.07635   24.75242
    5641      425        5     0.00000   51.85630   36.91952   24.27898
    5642      425        6     0.00000   51.00221   36.84722   24.77451
    5643      425        6     0.00000   51.85499   36.14139   23.66673
    5644      426        5     0.00000   50.46988   35.09724   13.60793
    5645      426        6     0.00000   50.88917   35.66453   14.30272
    5646      426        6     0.00000   49.51037   35.34066   13.63448
    5647      427        5     0.00000   26.67275   38.90872   17.84370
    5648      427        6     0.00000   25.99032   38.72602   17.14996
    5649      427        6     0.00000   26.15883   38.96971   18.68781
    5650      428        5     0.00000   29.25975   40.73915    0.33333
    5651      428        6     0.00000   28.53420   40.20445    0.74395
    5652      428        6     0.00000   30.01368   40.66554    0.97134
    5653      429        5     0.00000   52.65309   42.55249    3.37642
    5654      429        6     0.00000   51.95251   42.18078    3.96895
    5655      429        6     0.00000   52.24799   43.37162    2.99498
    5656      430        5     0.00000   44.25331   52.25088   14.10872
    5657      430        6     0.00000   44.35820   52.29925   15.09215
    5658      430        6     0.00000   43.37977   51.80451   13.97360
    5659      431        5     0.00000   42.93944   29.58992   17.42835
    5660      431        6     0.00000   42.58351   30.50974   17.34002
    5661      431        6     0.00000   43.19549   29.33178   16.50749
    5662      432        5     0.00000   51.19148   42.84455   14.36239
    5663      432        6     0.00000   51.77770   42.08482   14.11687
    5664      432        6     0.00000   50.44806   42.80590   13.70940
    5665      433        5     0.00000   34.41112   46.78142   18.93255
    5666      433        6     0.00000   34.81596   46.13737   19.56661
    5667      433        6     0.00000   35.18425   47.19677   18.47408
    5668      434        5     0.00000   41.81616   26.79315    8.65661
    5669      434        6     0.00000   40.90739   26.50583    8.92474
    5670      434        6     0.00000   41.99545   26.29763    7.81828
    5671      435        5     0.00000   35.02021   47.55507    8.06171
    5672      435        6     0.00000   34.37248   47.84056    8.75387
    5673      435        6     0.00000   34.63562   46.72227    7.68895
    5674      436        5     0.00000   49.64707   52.33264    0.60830
    5675      436        6     0.00000   48.87420   52.51218    0.01577
    5676      436        6     0.00000   49.48224   52.89020    1.40956
    5677      437        5     0.00000   46.12606   34.39430   19.46593
    5678      437        6     0.00000   45.74068   34.55492   20.36340
    5679      437        6     0.00000   46.53353   35.25838   19.20936
    5680      438        5     0.00000   27.70166   39.48075   12.68470
    5681      438        6     0.00000   27.79814   38.67450   12.11793
    5682      438        6     0.00000   27.76291   40.23863   12.05037
    5683      439        5     0.00000   44.46283   39.78989    2.39588
    5684      439        6     0.00000   45.39000   39.52202    2.17480
    5685      439        6     0.00000   44.21020   40.42501    1.67953
    5686      440        5     0.00000   39.53674   37.37640   15.92600
    5687      440        6     0.00000   39.58458   36.60616   15.30560
    5688      440        6     0.00000   40.39504   37.35195   16.41890
    5689      441        5     0.00000   31.68191   27.42222   24.49401
    5690      441        6     0.00000   31.51788   28.27185   24.97561
    5691      441        6     0.00000   32.26288   26.90041   25.10258
    5692      442        5     0.00000   50.09869   38.92502   13.76618
    5693      442        6     0.00000   50.91467   38.44158   13.48122
    5694      442        6     0.00000   50.29401   39.87638   13.57402
    5695      443        5     0.00000   52.12128   27.62779   10.41605
    5696      443        6     0.00000   51.68622   27.35703    9.56880
    5697      443        6     0.00000   51.65493   27.10204   11.11347
    5698      444        5     0.00000   45.50804   31.51577   19.41072
    5699      444        6     0.00000   45.23701   31.78444   20.32528
    5700      444        6     0.00000   44.68181   31.60726   18.87235
    5701      445        5     0.00000   39.25598   36.22105   22.15597
    5702      445        6     0.00000   38.74127   36.64376   21.42332
    5703      445        6     0.00000   40.20314   36.32988   21.88862
    5704      446        5     0.00000   39.31171   34.05492   12.84716
    5705      446        6     0.00000   39.07118   35.01180   12.92970
    5706      446        6     0.00000   38.66451   33.69162   12.19128
    5707      447        5     0.00000   44.28460   34.61170    3.97526
    5708      447        6     0.00000   43.96494   34.17006    4.80148
    5709      447        6     0.00000   43.93155   35.53493    4.03335
    5710      448        5     0.00000   28.51317   39.50730   21.70986
    5711      448        6     0.00000   28.70192   40.20892   22.38257
    5712      448        6     0.00000   27.83862   39.91423   21.10997
    5713      444        1     0.00000   34.57306   32.72922   51.23722
    5714      444        1     0.00000   34.56754   45.84741   38.10825
    5715      444        1     0.00000   47.74172   32.75446   38.12087
    5716      444        1     0.00000   47.73830   45.89289   51.27534
    5717      444        1     0.00000   44.28013   46.12449   51.26509
    5718      444        1     0.00000   44.26777   32.98159   38.11509
    5719      444        1     0.00000   31.16562   46.15656   38.10142
    5720      444        1     0.00000   31.15984   33.01471   51.24143
    5721      444        1     0.00000   44.27172   32.74289   27.58310
    5722      444        1     0.00000   44.29327   45.89289   40.74598
    5723      444        1     0.00000   31.16089   32.70320   40.75492
    5724      444        1     0.00000   31.15405   45.85293   27.61123
    5725      444        1     0.00000   34.56727   46.14473   27.60860
    5726      444        1     0.00000   34.54835   33.01077   40.75361
    5727      444        1     0.00000   47.72542   46.15656   40.72863
    5728      444        1     0.00000   47.72936   32.99184   27.59861
    5729      444        1     0.00000   51.26114   34.57437   32.72292
    5730      444        1     0.00000   51.27323   47.70991   45.82796
    5731      444        1     0.00000   38.13139   34.55544   45.82086
    5732      444        1     0.00000   38.11588   47.70754   32.71529
    5733      444        1     0.00000   51.26955   44.33007   46.16155
    5734      444        1     0.00000   51.26167   31.14354   32.99841
    5735      444        1     0.00000   38.11982   44.29879   33.00604
    5736      444        1     0.00000   38.13875   31.19033   46.14972
    5737      444        1     0.00000   27.61044   44.29537   32.72370
    5738      444        1     0.00000   27.59020   31.19007   45.85661
    5739      444        1     0.00000   40.73888   44.32271   45.83874
    5740      444        1     0.00000   40.74914   31.12566   32.70004
    5741      444        1     0.00000   27.60177   34.58646   46.15761
    5742      444        1     0.00000   27.61334   47.71858   32.99263
    5743      444        1     0.00000   40.75492   34.56911   32.96844
    5744      444        1     0.00000   40.73783   47.70123   46.16418
    5745      444        1     0.00000   32.71739   51.26824   34.55650
    5746      444        1     0.00000   32.70478   38.12823   47.70570
    5747      444        1     0.00000   45.87685   51.22171   47.70150
    5748      444        1     0.00000   45.86345   38.10641   34.58410
    5749      444        1     0.00000   46.15682   51.25352   44.28013
    5750      444        1     0.00000   46.13605   38.10563   31.15195
    5751      444        1     0.00000   33.01603   51.25562   31.15694
    5752      444        1     0.00000   33.01340   38.10431   44.31141
    5753      444        1     0.00000   32.67586   27.61991   44.33481
    5754      444        1     0.00000   32.72029   40.74309   31.15931
    5755      444        1     0.00000   45.89946   27.63305   31.12198
    5756      444        1     0.00000   45.87738   40.80487   44.31430
    5757      444        1     0.00000   46.12580   27.62490   34.59330
    5758      444        1     0.00000   46.14289   40.80539   47.70702
    5759      444        1     0.00000   33.04941   27.62858   47.67390
    5760      444        1     0.00000   33.01944   40.73573   34.56570
    5761      444        1     0.00000   32.72817   34.56833   27.59599
    5762      444        1     0.00000   32.71503   47.70465   40.73678
    5763      444        1     0.00000   45.89026   34.61906   40.75124
    5764      444        1     0.00000   45.87896   47.74172   27.61702
    5765      444        1     0.00000   46.12501   44.28144   27.62359
    5766      444        1     0.00000   46.11502   31.15116   40.76990
    5767      444        1     0.00000   33.01208   44.30668   40.74625
    5768      444        1     0.00000   33.00472   31.14459   27.57837
    5769      444        1     0.00000   32.71161   44.30063   51.25536
    5770      444        1     0.00000   32.69426   31.15668   38.12508
    5771      444        1     0.00000   45.86687   44.29643   38.10957
    5772      444        1     0.00000   45.89210   31.14853   51.23117
    5773      444        1     0.00000   46.12922   34.60303   51.24774
    5774      444        1     0.00000   46.13106   47.73225   38.08985
    5775      444        1     0.00000   33.02049   34.54177   38.11167
    5776      444        1     0.00000   33.00472   47.70833   51.26246
    5777      444        1     0.00000   34.54440   51.28138   46.18574
    5778      444        1     0.00000   34.57463   38.09642   33.00630
    5779      444        1     0.00000   47.73383   51.27008   32.96818
    5780      444        1     0.00000   47.72121   38.15978   46.15971
    5781      444        1     0.00000   44.27172   51.28322   32.73080
    5782      444        1     0.00000   44.29248   38.16083   45.85950
    5783      444        1     0.00000   31.20163   51.27008   45.82717
    5784      444        1     0.00000   31.16483   38.09958   32.71056
    5785      444        1     0.00000   44.28985   27.57522   46.14762
    5786      444        1     0.00000   44.29301   40.75045   32.99973
    5787      444        1     0.00000   31.17245   27.61807   33.00078
    5788      444        1     0.00000   31.17535   40.76149   46.14236
    5789      444        1     0.00000   34.57017   27.61123   32.69321
    5790      444        1     0.00000   34.56885   40.73915   45.83243
    5791      444        1     0.00000   47.71044   27.60440   45.87475
    5792      444        1     0.00000   47.72411   40.74493   32.73474
    5793      444        1     0.00000   51.24064   32.73369   44.31194
    5794      444        1     0.00000   51.25746   45.86581   31.14564
    5795      444        1     0.00000   38.10720   32.72686   31.11935
    5796      444        1     0.00000   38.09958   45.84978   44.31272
    5797      444        1     0.00000   51.25851   46.15183   34.56833
    5798      444        1     0.00000   51.25247   33.04547   47.71517
    5799      444        1     0.00000   38.09748   46.17023   47.68835
    5800      444        1     0.00000   38.11930   32.97160   34.56386
    5801      444        1     0.00000   27.61754   32.72370   34.56044
    5802      444        1     0.00000   27.62043   45.85819   47.68336
    5803      444        1     0.00000   40.77674   32.70688   47.66837
    5804      444        1     0.00000   40.75466   45.86213   34.56964
    5805      444        1     0.00000   27.61912   46.18337   44.30563
    5806      444        1     0.00000   27.61071   32.99473   31.13644
    5807      444        1     0.00000   40.75807   46.15393   31.15458
    5808      444        1     0.00000   40.77253   33.04862   44.29695
    5809      444        1     0.00000   44.31667   46.17785   27.61675
    5810      444        1     0.00000   44.32271   33.05887   40.75518
    5811      444        1     0.00000   31.14774   46.14604   40.74178
    5812      444        1     0.00000   31.16378   33.00604   27.58994
    5813      444        1     0.00000   34.56833   32.70793   27.58363
    5814      444        1     0.00000   34.57779   45.86713   40.74651
    5815      444        1     0.00000   47.68494   32.71109   40.76254
    5816      444        1     0.00000   47.68625   45.84741   27.62385
    5817      444        1     0.00000   34.56833   46.14578   51.25615
    5818      444        1     0.00000   34.57779   32.97318   38.11588
    5819      444        1     0.00000   47.69282   46.16812   38.09222
    5820      444        1     0.00000   47.69861   33.04389   51.24826
    5821      444        1     0.00000   44.32350   32.70530   51.23091
    5822      444        1     0.00000   44.30168   45.85793   38.10747
    5823      444        1     0.00000   31.13618   32.72633   38.11483
    5824      444        1     0.00000   31.14748   45.86292   51.25772
    5825      444        1     0.00000   27.61991   44.29537   46.12186
    5826      444        1     0.00000   27.61386   31.15694   32.99999
    5827      444        1     0.00000   40.75729   44.30116   33.00420
    5828      444        1     0.00000   40.77910   31.14853   46.10109
    5829      444        1     0.00000   27.61281   34.56018   32.69689
    5830      444        1     0.00000   27.62411   47.74514   45.86871
    5831      444        1     0.00000   40.76806   34.60513   45.86713
    5832      444        1     0.00000   40.75413   47.71569   32.71976
    5833      444        1     0.00000   51.24879   34.60408   46.14631
    5834      444        1     0.00000   51.26114   47.71017   33.00025
    5835      444        1     0.00000   38.11719   34.54099   33.00814
    5836      444        1     0.00000   38.09616   47.73672   46.12790
    5837      444        1     0.00000   51.25799   44.30668   32.71345
    5838      444        1     0.00000   51.24116   31.17824   45.88290
    5839      444        1     0.00000   38.10142   44.28460   45.87528
    5840      444        1     0.00000   38.11325   31.15773   32.67586
    5841      444        1     0.00000   46.14736   27.60492   44.31115
    5842      444        1     0.00000   46.16155   40.74467   31.17114
    5843      444        1     0.00000   33.00446   27.60598   31.13197
    5844      444        1     0.00000   33.00314   40.74046   44.27172
    5845      444        1     0.00000   32.73711   27.62201   34.56254
    5846      444        1     0.00000   32.73895   40.76517   47.70439
    5847      444        1     0.00000   45.85188   27.57522   47.71254
    5848      444        1     0.00000   45.85346   40.74835   34.56596
    5849      444        1     0.00000   46.17128   51.27402   34.53363
    5850      444        1     0.00000   46.16076   38.16582   47.72726
    5851      444        1     0.00000   32.98527   51.27823   47.74330
    5852      444        1     0.00000   33.01156   38.09353   34.56885
    5853      444        1     0.00000   32.76392   51.26982   44.26725
    5854      444        1     0.00000   32.72817   38.10300   31.14774
    5855      444        1     0.00000   45.83374   51.28428   31.16693
    5856      444        1     0.00000   45.85477   38.16740   44.29248
    5857      444        1     0.00000   46.18022   44.32403   51.27323
    5858      444        1     0.00000   46.17864   31.19007   38.12928
    5859      444        1     0.00000   33.00130   44.28775   38.10668
    5860      444        1     0.00000   33.01182   31.16325   51.22933
    5861      444        1     0.00000   32.72160   34.57963   51.24826
    5862      444        1     0.00000   32.73369   47.71464   38.09879
    5863      444        1     0.00000   45.83164   34.54756   38.10983
    5864      444        1     0.00000   45.83874   47.69309   51.26745
    5865      444        1     0.00000   46.16523   34.55360   27.59940
    5866      444        1     0.00000   46.16471   47.72253   40.73047
    5867      444        1     0.00000   32.98816   34.57779   40.75124
    5868      444        1     0.00000   33.00341   47.70623   27.61360
    5869      444        1     0.00000   32.71845   44.29091   27.60782
    5870      444        1     0.00000   32.72081   31.13697   40.76412
    5871      444        1     0.00000   45.85556   44.32902   40.74703
    5872      444        1     0.00000   45.83821   31.18297   27.58074
    5873      444        1     0.00000   44.33270   27.63226   32.68296
    5874      444        1     0.00000   44.30957   40.80040   45.87186
    5875      444        1     0.00000   31.12303   27.62070   45.89841
    5876      444        1     0.00000   31.15773   40.74046   32.72265
    5877      444        1     0.00000   34.60408   27.63069   46.10661
    5878      444        1     0.00000   34.58147   40.73836   33.00183
    5879      444        1     0.00000   47.69230   27.62096   33.03390
    5880      444        1     0.00000   47.70991   40.79777   46.14709
    5881      444        1     0.00000   34.58147   51.25825   32.71792
    5882      444        1     0.00000   34.57621   38.10221   45.87370
    5883      444        1     0.00000   47.71964   51.25063   45.84426
    5884      444        1     0.00000   47.69808   38.10273   32.71634
    5885      444        1     0.00000   44.31535   51.22329   46.13658
    5886      444        1     0.00000   44.30352   38.11220   33.01760
    5887      444        1     0.00000   31.15326   51.26666   32.99342
    5888      444        1     0.00000   31.14249   38.12587   46.14157
    5889      444        1     0.00000   27.61123   46.15998   34.56123
    5890      444        1     0.00000   27.60045   33.02286   47.72121
    5891      444        1     0.00000   40.73599   46.13342   47.72358
    5892      444        1     0.00000   40.75492   33.00130   34.52653
    5893      444        1     0.00000   27.59599   32.74947   44.28933
    5894      444        1     0.00000   27.61097   45.85346   31.15589
    5895      444        1     0.00000   40.74440   32.69295   31.14143
    5896      444        1     0.00000   40.73941   45.88842   44.27802
    5897      444        1     0.00000   51.26719   46.14263   44.27172
    5898      444        1     0.00000   51.25851   33.00919   31.16115
    5899      444        1     0.00000   38.11982   46.14578   31.15064
    5900      444        1     0.00000   38.13218   32.99789   44.25331
    5901      444        1     0.00000   51.26824   32.70925   34.55860
    5902      444        1     0.00000   51.27218   45.89788   47.71885
    5903      444        1     0.00000   38.13901   32.75157   47.71596
    5904      444        1     0.00000   38.11614   45.86056   34.57122
    5905      444        2     0.00000   33.61960   33.61749   26.27239
    5906      444        2     0.00000   33.61933   46.75434   39.42265
    5907      444        2     0.00000   46.76092   33.63221   39.43632
    5908      444        2     0.00000   46.75487   46.76276   26.30157
    5909      444        2     0.00000   45.25068   45.25199   26.30026
    5910      444        2     0.00000   45.25278   32.12697   39.44237
    5911      444        2     0.00000   32.10725   45.24936   39.42423
    5912      444        2     0.00000   32.11093   32.10830   26.26608
    5913      444        2     0.00000   45.24831   33.62564   26.27108
    5914      444        2     0.00000   45.24542   46.77800   39.41897
    5915      444        2     0.00000   32.10305   33.61066   39.43316
    5916      444        2     0.00000   32.10462   46.75618   26.29237
    5917      444        2     0.00000   33.61355   45.24831   26.28790
    5918      444        2     0.00000   33.60724   32.09805   39.43921
    5919      444        2     0.00000   46.75382   45.26908   39.41949
    5920      444        2     0.00000   46.75987   32.12092   26.27108
    5921      444        2     0.00000   26.29605   33.61407   33.60750
    5922      444        2     0.00000   26.30341   46.77091   46.74330
    5923      444        2     0.00000   39.45367   33.62249   46.73568
    5924      444        2     0.00000   39.43527   46.75987   33.61723
    5925      444        2     0.00000   26.29973   45.26040   45.23806
    5926      444        2     0.00000   26.29237   32.10305   32.10094
    5927      444        2     0.00000   39.43868   45.25304   32.10725
    5928      444        2     0.00000   39.45551   32.11987   45.22386
    5929      444        2     0.00000   26.29027   45.25620   33.61381
    5930      444        2     0.00000   26.27765   32.14222   46.76039
    5931      444        2     0.00000   39.41897   45.25856   46.75066
    5932      444        2     0.00000   39.43422   32.09253   33.58831
    5933      444        2     0.00000   26.27765   33.64720   45.24857
    5934      444        2     0.00000   26.29132   46.76013   32.10094
    5935      444        2     0.00000   39.43106   33.60593   32.08543
    5936      444        2     0.00000   39.41871   46.76933   45.24463
    5937      444        2     0.00000   33.62590   26.29605   33.60698
    5938      444        2     0.00000   33.62222   39.43369   46.75434
    5939      444        2     0.00000   46.76486   26.26976   46.75829
    5940      444        2     0.00000   46.76118   39.42580   33.62669
    5941      444        2     0.00000   45.25725   26.27081   45.24884
    5942      444        2     0.00000   45.25436   39.42817   32.11645
    5943      444        2     0.00000   32.11619   26.29263   32.10015
    5944      444        2     0.00000   32.11251   39.43316   45.24568
    5945      444        2     0.00000   33.62038   26.30630   45.25015
    5946      444        2     0.00000   33.62249   39.42028   32.10699
    5947      444        2     0.00000   46.76197   26.30814   32.10042
    5948      444        2     0.00000   46.78352   39.46786   45.23674
    5949      444        2     0.00000   45.25383   26.30946   33.60593
    5950      444        2     0.00000   45.23412   39.46708   46.78247
    5951      444        2     0.00000   32.11382   26.30525   46.76197
    5952      444        2     0.00000   32.11435   39.41739   33.61565
    5953      444        3     0.00000   34.80071   30.95164   49.63944
    5954      444        3     0.00000   34.10566   31.63591   50.76115
    5955      444        3     0.00000   34.78862   44.06772   36.51494
    5956      444        3     0.00000   34.09672   44.75515   37.63612
    5957      444        3     0.00000   44.07245   47.90497   49.66231
    5958      444        3     0.00000   44.75016   47.21833   50.79164
    5959      444        3     0.00000   44.05852   34.76838   36.51126
    5960      444        3     0.00000   44.73885   34.07438   37.63823
    5961      444        3     0.00000   30.93402   34.80649   49.66073
    5962      444        3     0.00000   31.62750   34.11197   50.77639
    5963      444        3     0.00000   44.06614   30.95032   29.17457
    5964      444        3     0.00000   44.74411   31.64905   28.05287
    5965      444        3     0.00000   44.08980   44.12030   42.35480
    5966      444        3     0.00000   44.76698   44.80273   41.22284
    5967      444        3     0.00000   30.93008   30.93560   42.36111
    5968      444        3     0.00000   31.62776   31.61173   41.23389
    5969      444        3     0.00000   34.78809   47.92468   29.20586
    5970      444        3     0.00000   34.09777   47.23673   28.08336
    5971      444        3     0.00000   34.77784   34.79098   42.34087
    5972      444        3     0.00000   34.08147   34.10645   41.22206
    5973      444        3     0.00000   49.65679   34.78126   30.94585
    5974      444        3     0.00000   50.78507   34.10093   31.63276
    5975      444        3     0.00000   36.52809   34.78336   44.05379
    5976      444        3     0.00000   37.65794   34.08910   44.72807
    5977      444        3     0.00000   49.67414   44.11662   47.93730
    5978      444        3     0.00000   50.79848   44.80378   47.25276
    5979      444        3     0.00000   49.67414   30.93113   34.79335
    5980      444        3     0.00000   50.79453   31.61488   34.09357
    5981      444        3     0.00000   36.52257   44.07429   34.78573
    5982      444        3     0.00000   37.64559   44.76698   34.09935
    5983      444        3     0.00000   29.20717   44.07272   30.94138
    5984      444        3     0.00000   28.08363   44.76198   31.62934
    5985      444        3     0.00000   42.35007   44.11530   44.07666
    5986      444        3     0.00000   41.21522   44.79721   44.75042
    5987      444        3     0.00000   42.33982   30.92035   30.90879
    5988      444        3     0.00000   41.21759   31.59884   31.60621
    5989      444        3     0.00000   29.19771   34.80413   47.93493
    5990      444        3     0.00000   28.07390   34.11539   47.24961
    5991      444        3     0.00000   42.34586   34.77837   34.76102
    5992      444        3     0.00000   41.22679   34.09541   34.06123
    5993      444        3     0.00000   30.93902   49.67230   34.77731
    5994      444        3     0.00000   31.62408   50.79585   34.08726
    5995      444        3     0.00000   30.91904   36.54518   47.93599
    5996      444        3     0.00000   31.60936   37.66005   47.23936
    5997      444        3     0.00000   47.94782   49.66836   44.05326
    5998      444        3     0.00000   47.25303   50.78428   44.74726
    5999      444        3     0.00000   47.91864   36.50574   30.93849
    6000      444        3     0.00000   47.22779   37.63060   31.62303
    6001      444        3     0.00000   34.79151   49.65548   30.93954
    6002      444        3     0.00000   34.10829   50.78244   31.62724
    6003      444        3     0.00000   30.90484   29.21322   44.10400
    6004      444        3     0.00000   31.58517   28.09178   44.80405
    6005      444        3     0.00000   30.93823   42.33955   30.94112
    6006      444        3     0.00000   31.62697   41.21496   31.62960
    6007      444        3     0.00000   47.92705   29.21243   34.81175
    6008      444        3     0.00000   47.22385   28.09309   34.12695
    6009      444        3     0.00000   47.93047   42.39581   47.92547
    6010      444        3     0.00000   47.23725   41.27437   47.23646
    6011      444        3     0.00000   34.79545   42.33719   34.78283
    6012      444        3     0.00000   34.11118   41.21049   34.09488
    6013      444        3     0.00000   30.94690   34.78021   29.19166
    6014      444        3     0.00000   31.63486   34.09646   28.06654
    6015      444        3     0.00000   30.94270   47.93520   42.33535
    6016      444        3     0.00000   31.62171   47.23909   41.21128
    6017      444        3     0.00000   47.91390   44.07298   29.21821
    6018      444        3     0.00000   47.21806   44.75436   28.09572
    6019      444        3     0.00000   47.89918   30.94822   42.37452
    6020      444        3     0.00000   47.20939   31.62303   41.24256
    6021      444        3     0.00000   34.78625   30.92535   29.17168
    6022      444        3     0.00000   34.09777   31.61330   28.05129
    6023      444        3     0.00000   30.93744   44.08691   49.65101
    6024      444        3     0.00000   31.61935   44.77197   50.78139
    6025      444        3     0.00000   30.93008   30.94296   36.51626
    6026      444        3     0.00000   31.60621   31.63092   37.64559
    6027      444        3     0.00000   47.92179   34.82490   49.65968
    6028      444        3     0.00000   47.22726   34.13668   50.77850
    6029      444        3     0.00000   47.91522   47.94045   36.49050
    6030      444        3     0.00000   47.22306   47.25934   37.61667
    6031      444        3     0.00000   34.79782   34.75760   36.51705
    6032      444        3     0.00000   34.11144   34.06780   37.64086
    6033      444        3     0.00000   34.77232   49.68019   47.94992
    6034      444        3     0.00000   34.07727   50.80636   47.27563
    6035      444        3     0.00000   34.79361   36.49181   34.78468
    6036      444        3     0.00000   34.10461   37.62009   34.09804
    6037      444        3     0.00000   44.06062   49.69044   30.93928
    6038      444        3     0.00000   44.74095   50.81293   31.63512
    6039      444        3     0.00000   44.07981   36.57409   44.07377
    6040      444        3     0.00000   44.76251   37.69501   44.76356
    6041      444        3     0.00000   30.94480   36.50890   30.92509
    6042      444        3     0.00000   31.63433   37.63008   31.61619
    6043      444        3     0.00000   44.08244   29.17983   47.91942
    6044      444        3     0.00000   44.76093   28.04840   47.23962
    6045      444        3     0.00000   44.07981   42.34954   34.78073
    6046      444        3     0.00000   44.76330   41.22363   34.09278
    6047      444        3     0.00000   30.95164   29.21926   34.77600
    6048      444        3     0.00000   31.64406   28.09414   34.09146
    6049      444        3     0.00000   34.78678   29.20086   30.90774
    6050      444        3     0.00000   34.09856   28.07968   31.59911
    6051      444        3     0.00000   34.79046   42.33325   44.05537
    6052      444        3     0.00000   34.09909   41.20970   44.73911
    6053      444        3     0.00000   49.63445   30.95926   44.10768
    6054      444        3     0.00000   50.76535   31.64537   44.78906
    6055      444        3     0.00000   36.51626   30.93639   30.90169
    6056      444        3     0.00000   37.63796   31.63013   31.58649
    6057      444        3     0.00000   49.65758   47.93073   34.77048
    6058      444        3     0.00000   50.78586   47.24199   34.09251
    6059      444        3     0.00000   36.50417   47.94782   47.92205
    6060      444        3     0.00000   37.62508   47.26433   47.22201
    6061      444        3     0.00000   36.52835   34.76049   34.78914
    6062      444        3     0.00000   37.64822   34.06833   34.10014
    6063      444        3     0.00000   29.21085   30.94191   34.77705
    6064      444        3     0.00000   28.08810   31.62934   34.09067
    6065      444        3     0.00000   42.37320   30.93061   47.89287
    6066      444        3     0.00000   41.25097   31.61646   47.19677
    6067      444        3     0.00000   29.22242   47.95465   44.07902
    6068      444        3     0.00000   28.09519   47.27511   44.77460
    6069      444        3     0.00000   29.21164   34.77653   30.91957
    6070      444        3     0.00000   28.08520   34.08831   31.60489
    6071      444        3     0.00000   42.34560   47.94440   30.93560
    6072      444        3     0.00000   41.22679   47.24856   31.62513
    6073      444        3     0.00000   44.08297   47.95912   29.20612
    6074      444        3     0.00000   44.78275   47.27222   28.08704
    6075      444        3     0.00000   44.10347   34.83357   42.35322
    6076      444        3     0.00000   44.79668   34.15114   41.22679
    6077      444        3     0.00000   34.78967   44.08139   42.34245
    6078      444        3     0.00000   34.10513   44.77487   41.21969
    6079      444        3     0.00000   34.78205   47.93441   49.66547
    6080      444        3     0.00000   34.09725   47.24014   50.78743
    6081      444        3     0.00000   44.10768   30.93166   49.62866
    6082      444        3     0.00000   44.79826   31.61646   50.75563
    6083      444        3     0.00000   44.08139   44.07561   36.51705
    6084      444        3     0.00000   44.77197   44.76382   37.63823
    6085      444        3     0.00000   29.21453   44.08087   47.91049
    6086      444        3     0.00000   28.09178   44.76461   47.21543
    6087      444        3     0.00000   42.34928   44.08008   34.78704
    6088      444        3     0.00000   41.22758   44.76987   34.09882
    6089      444        3     0.00000   42.36532   34.82936   44.08165
    6090      444        3     0.00000   41.24230   34.14062   44.77171
    6091      444        3     0.00000   49.65548   34.82384   47.93336
    6092      444        3     0.00000   50.77902   34.13720   47.24330
    6093      444        3     0.00000   49.65469   44.08586   30.94191
    6094      444        3     0.00000   50.78244   44.77565   31.62171
    6095      444        3     0.00000   36.51416   44.06877   44.08087
    6096      444        3     0.00000   37.63060   44.75489   44.78039
    6097      444        3     0.00000   47.90812   29.22216   44.11004
    6098      444        3     0.00000   47.23410   28.08468   44.78801
    6099      444        3     0.00000   47.93336   42.34350   30.95111
    6100      444        3     0.00000   47.25303   41.21759   31.64169
    6101      444        3     0.00000   30.95427   42.36111   47.91601
    6102      444        3     0.00000   31.64616   41.23730   47.23278
    6103      444        3     0.00000   47.93362   49.66678   34.75234
    6104      444        3     0.00000   47.25986   50.79637   34.06097
    6105      444        3     0.00000   47.92915   36.55543   47.93336
    6106      444        3     0.00000   47.24724   37.68844   47.25224
    6107      444        3     0.00000   30.97372   49.66941   44.06167
    6108      444        3     0.00000   31.67140   50.79506   44.73780
    6109      444        3     0.00000   47.95071   44.11372   49.67256
    6110      444        3     0.00000   47.27038   44.79826   50.80137
    6111      444        3     0.00000   47.95307   30.95374   36.53519
    6112      444        3     0.00000   47.27248   31.65747   37.65505
    6113      444        3     0.00000   30.94822   47.93572   36.50443
    6114      444        3     0.00000   31.63880   47.24751   37.62719
    6115      444        3     0.00000   47.93520   34.77416   29.20454
    6116      444        3     0.00000   47.25644   34.08358   28.07443
    6117      444        3     0.00000   47.94966   47.94151   42.31852
    6118      444        3     0.00000   47.25855   47.25171   41.19945
    6119      444        3     0.00000   30.93849   44.07166   29.20822
    6120      444        3     0.00000   31.62540   44.75988   28.08257
    6121      444        3     0.00000   44.09979   29.21821   30.90406
    6122      444        3     0.00000   44.80299   28.10282   31.58964
    6123      444        3     0.00000   44.10321   42.40370   44.10058
    6124      444        3     0.00000   44.78459   41.27647   44.78564
    6125      444        3     0.00000   34.81780   29.22741   47.89866
    6126      444        3     0.00000   34.13799   28.10334   47.20176
    6127      444        3     0.00000   34.78468   36.50469   44.08928
    6128      444        3     0.00000   34.10329   37.62824   44.78249
    6129      444        3     0.00000   44.09716   49.61999   47.91233
    6130      444        3     0.00000   44.78670   50.74616   47.22753
    6131      444        3     0.00000   44.07561   36.51074   34.78862
    6132      444        3     0.00000   44.77013   37.63639   34.11013
    6133      444        3     0.00000   29.20927   47.93914   34.77679
    6134      444        3     0.00000   28.08468   47.25119   34.08831
    6135      444        3     0.00000   42.34718   47.90497   47.92863
    6136      444        3     0.00000   41.21312   47.22464   47.25224
    6137      444        3     0.00000   29.18667   30.95768   44.08297
    6138      444        3     0.00000   28.06470   31.65589   44.76277
    6139      444        3     0.00000   49.67493   47.93125   44.05379
    6140      444        3     0.00000   50.79716   47.23778   44.73859
    6141      444        3     0.00000   36.52257   47.92468   30.93429
    6142      444        3     0.00000   37.64559   47.23725   31.62145
    6143      444        3     0.00000   36.54228   30.96452   47.92126
    6144      444        3     0.00000   37.66688   31.65904   47.24330
    6145      444        3     0.00000   35.95685   31.51656   49.07373
    6146      444        4     0.00000   36.37483   32.41850   49.50274
    6147      444        3     0.00000   35.94502   44.62923   35.94213
    6148      444        4     0.00000   36.36694   45.53169   36.36800
    6149      444        3     0.00000   42.91342   47.35318   49.09055
    6150      444        4     0.00000   42.47809   46.46150   49.52430
    6151      444        3     0.00000   42.90948   34.21344   35.92084
    6152      444        4     0.00000   42.48098   33.31124   36.33934
    6153      444        3     0.00000   29.79076   47.37710   35.92951
    6154      444        4     0.00000   29.36832   46.47412   36.35275
    6155      444        3     0.00000   42.90238   31.48817   29.75054
    6156      444        4     0.00000   42.46416   32.38354   29.32652
    6157      444        3     0.00000   42.92209   44.66761   42.91657
    6158      444        4     0.00000   42.48125   45.55325   42.47467
    6159      444        3     0.00000   29.78366   44.63133   29.78524
    6160      444        4     0.00000   29.35964   45.53353   29.36174
    6161      444        3     0.00000   35.94739   47.36817   29.77709
    6162      444        4     0.00000   36.37641   46.47201   29.34755
    6163      444        3     0.00000   35.94870   34.23920   42.89397
    6164      444        4     0.00000   36.38298   33.35435   42.44865
    6165      444        3     0.00000   49.07215   35.93214   31.50447
    6166      444        4     0.00000   49.49013   36.35564   32.40956
    6167      444        3     0.00000   49.10028   49.08740   44.61504
    6168      444        4     0.00000   49.52062   49.50721   45.52092
    6169      444        3     0.00000   35.94739   35.92846   44.63317
    6170      444        4     0.00000   36.37536   36.34512   45.53616
    6171      444        3     0.00000   49.08871   42.96889   47.36974
    6172      444        4     0.00000   49.51116   42.54381   46.46754
    6173      444        3     0.00000   49.08608   29.77683   34.24393
    6174      444        4     0.00000   49.50432   29.34623   33.34226
    6175      444        3     0.00000   35.97263   29.81048   47.35055
    6176      444        4     0.00000   36.40112   29.39276   46.44730
    6177      444        3     0.00000   29.78209   42.91579   31.49948
    6178      444        4     0.00000   29.35649   42.49071   32.40010
    6179      444        3     0.00000   29.74923   29.79865   44.65105
    6180      444        4     0.00000   29.31469   29.37909   45.54983
    6181      444        3     0.00000   29.76421   35.96605   47.37947
    6182      444        4     0.00000   29.33572   36.39165   46.48095
    6183      444        3     0.00000   29.78156   49.09739   34.22106
    6184      444        4     0.00000   29.35254   49.52561   33.32333
    6185      444        3     0.00000   31.50342   49.09344   35.92951
    6186      444        4     0.00000   32.40562   49.51773   36.35275
    6187      444        3     0.00000   44.64421   49.05164   49.07741
    6188      444        4     0.00000   45.54536   49.47593   49.50301
    6189      444        3     0.00000   44.62082   35.93056   35.94844
    6190      444        4     0.00000   45.51461   36.35774   36.38613
    6191      444        3     0.00000   47.39419   49.09975   42.89213
    6192      444        4     0.00000   46.49515   49.52877   42.46495
    6193      444        3     0.00000   47.37001   35.93004   29.77736
    6194      444        4     0.00000   46.47254   36.35643   29.34571
    6195      444        3     0.00000   34.22947   49.07925   29.78498
    6196      444        4     0.00000   33.32701   49.50301   29.36253
    6197      444        3     0.00000   31.47477   29.77867   42.94733
    6198      444        4     0.00000   32.37407   29.34518   42.52830
    6199      444        3     0.00000   44.64895   29.80732   29.75291
    6200      444        4     0.00000   45.56350   29.40512   29.33756
    6201      444        3     0.00000   47.38105   29.79917   35.96737
    6202      444        4     0.00000   46.47753   29.38277   36.39665
    6203      444        3     0.00000   34.25024   29.79576   49.05559
    6204      444        4     0.00000   33.34909   29.36621   49.47488
    6205      444        3     0.00000   31.50473   35.93530   29.76921
    6206      444        4     0.00000   32.40641   36.36090   29.34597
    6207      444        3     0.00000   44.64790   35.99681   42.92315
    6208      444        4     0.00000   45.54536   36.42767   42.49676
    6209      444        3     0.00000   47.36528   42.91526   29.79733
    6210      444        4     0.00000   46.46518   42.48598   29.37568
    6211      444        3     0.00000   34.23289   42.91815   42.90422
    6212      444        4     0.00000   33.33385   42.49386   42.47310
    6213      444        3     0.00000   34.22737   29.77210   29.75107
    6214      444        4     0.00000   33.32412   29.34702   29.32994
    6215      444        3     0.00000   31.50526   42.93682   49.07425
    6216      444        4     0.00000   32.40720   42.51437   49.50064
    6217      444        3     0.00000   31.50184   29.79497   35.93556
    6218      444        4     0.00000   32.40536   29.37568   36.36116
    6219      444        3     0.00000   44.64159   42.92367   35.93609
    6220      444        4     0.00000   45.54563   42.50096   36.35669
    6221      444        3     0.00000   47.36002   35.97447   49.07977
    6222      444        4     0.00000   46.44835   36.38981   49.49276
    6223      444        3     0.00000   34.23394   35.91085   35.93793
    6224      444        4     0.00000   33.32754   36.33014   36.35695
    6225      444        3     0.00000   35.92478   49.10790   47.37763
    6226      444        4     0.00000   36.34355   49.53692   46.47569
    6227      444        3     0.00000   35.95133   35.91663   34.22790
    6228      444        4     0.00000   36.37614   36.34144   33.32622
    6229      444        3     0.00000   42.91000   49.10475   31.49501
    6230      444        4     0.00000   42.48177   49.52561   32.39616
    6231      444        3     0.00000   42.92630   35.99392   44.63186
    6232      444        4     0.00000   42.49071   36.42399   45.52565
    6233      444        3     0.00000   29.78708   35.93240   31.48055
    6234      444        4     0.00000   29.36043   36.35748   32.38065
    6235      444        3     0.00000   42.93340   29.76053   47.35266
    6236      444        4     0.00000   42.50254   29.32862   46.45834
    6237      444        3     0.00000   42.92525   42.92709   34.22395
    6238      444        4     0.00000   42.50044   42.50517   33.32123
    6239      444        3     0.00000   29.79602   29.79260   34.21370
    6240      444        4     0.00000   29.37831   29.37094   33.30782
    6241      444        3     0.00000   35.94134   29.78156   31.46583
    6242      444        4     0.00000   36.36431   29.36306   32.37092
    6243      444        3     0.00000   35.94423   42.90422   44.62213
    6244      444        4     0.00000   36.37115   42.46915   45.51776
    6245      444        3     0.00000   49.05480   31.51393   42.94996
    6246      444        4     0.00000   49.47751   32.41508   42.52278
    6247      444        3     0.00000   49.06952   44.64027   29.78866
    6248      444        4     0.00000   49.48750   45.54379   29.36253
    6249      444        3     0.00000   35.94108   31.48791   29.74450
    6250      444        4     0.00000   36.36405   32.38880   29.31758
    6251      444        3     0.00000   49.07399   47.37710   35.92426
    6252      444        4     0.00000   49.49565   46.47753   36.35538
    6253      444        3     0.00000   49.08503   34.27285   49.09370
    6254      444        4     0.00000   49.52009   33.38011   49.53035
    6255      444        3     0.00000   35.95554   34.20292   35.94529
    6256      444        4     0.00000   36.38351   33.30414   36.37220
    6257      444        3     0.00000   29.77499   31.49711   35.93845
    6258      444        4     0.00000   29.34150   32.39274   36.36694
    6259      444        3     0.00000   29.78235   44.64159   49.07005
    6260      444        4     0.00000   29.35175   45.54090   49.49512
    6261      444        3     0.00000   29.78366   47.39051   42.91789
    6262      444        4     0.00000   29.34545   46.49515   42.49360
    6263      444        3     0.00000   29.79155   34.21817   29.76579
    6264      444        4     0.00000   29.36963   33.31571   29.34098
    6265      444        3     0.00000   42.92867   47.39051   29.77998
    6266      444        4     0.00000   42.51148   46.48621   29.35465
    6267      444        3     0.00000   42.95338   34.26470   42.93366
    6268      444        4     0.00000   42.54013   33.35382   42.51621
    6269      444        3     0.00000   35.93898   44.63948   42.92972
    6270      444        4     0.00000   36.35853   45.55010   42.51936
    6271      444        3     0.00000   35.93451   47.37973   49.07819
    6272      444        4     0.00000   36.36090   46.47517   49.49407
    6273      444        3     0.00000   42.96021   31.50026   49.04034
    6274      444        4     0.00000   42.55065   32.41587   49.44885
    6275      444        3     0.00000   42.92341   44.63423   35.94555
    6276      444        4     0.00000   42.49623   45.53275   36.37483
    6277      444        3     0.00000   29.79733   42.92972   47.35345
    6278      444        4     0.00000   29.37541   42.50280   46.45098
    6279      444        3     0.00000   29.81731   49.10264   44.63370
    6280      444        4     0.00000   29.40670   49.52798   45.54063
    6281      444        3     0.00000   49.07609   35.97236   47.36869
    6282      444        4     0.00000   49.49065   36.38745   46.45519
    6283      444        3     0.00000   49.08818   49.08450   34.20240
    6284      444        4     0.00000   49.51852   49.50564   33.30230
    6285      444        3     0.00000   49.08871   42.92577   31.50342
    6286      444        4     0.00000   49.52272   42.50044   32.39905
    6287      444        3     0.00000   49.05822   29.80654   44.67182
    6288      444        4     0.00000   49.48093   29.38803   45.57717
    6289      444        3     0.00000   47.34503   29.79418   42.95495
    6290      444        4     0.00000   46.44599   29.36542   42.53014
    6291      444        3     0.00000   44.65184   29.76421   49.06584
    6292      444        4     0.00000   45.55088   29.33651   49.49302
    6293      444        3     0.00000   47.36317   49.09476   35.90612
    6294      444        4     0.00000   46.46045   49.52272   36.32515
    6295      444        3     0.00000   34.22027   49.09528   49.10291
    6296      444        4     0.00000   33.32123   49.51668   49.53508
    6297      444        3     0.00000   31.51788   49.08582   42.90553
    6298      444        4     0.00000   32.42113   49.50169   42.47494
    6299      444        3     0.00000   44.62792   49.12052   29.78261
    6300      444        4     0.00000   45.52670   49.55164   29.35912
    6301      444        3     0.00000   47.37973   42.96652   49.08818
    6302      444        4     0.00000   46.47937   42.54039   49.51510
    6303      444        3     0.00000   34.23315   42.91158   35.93766
    6304      444        4     0.00000   33.33148   42.48598   36.36037
    6305      444        3     0.00000   31.48055   35.97263   49.09318
    6306      444        4     0.00000   32.37539   36.40480   49.52325
    6307      444        3     0.00000   34.21502   35.93372   42.93603
    6308      444        4     0.00000   33.30361   36.35222   42.52725
    6309      444        3     0.00000   31.49737   42.91605   29.78472
    6310      444        4     0.00000   32.39905   42.49176   29.35990
    6311      444        3     0.00000   44.66419   42.98019   42.94759
    6312      444        4     0.00000   45.57218   42.56510   42.53172
    6313      444        3     0.00000   42.93261   29.77184   31.46294
    6314      444        4     0.00000   42.51253   29.33835   32.36251
    6315      444        3     0.00000   42.93971   42.97230   44.65131
    6316      444        4     0.00000   42.51516   42.55038   45.55325
    6317      444        3     0.00000   35.94923   42.91815   34.22422
    6318      444        4     0.00000   36.37483   42.49649   33.32175
    6319      444        3     0.00000   35.94686   49.07846   31.49632
    6320      444        4     0.00000   36.37089   49.50090   32.39905
    6321      444        3     0.00000   42.94207   49.04323   47.35187
    6322      444        4     0.00000   42.52804   49.45832   46.44099
    6323      444        3     0.00000   42.92709   35.93582   34.21344
    6324      444        4     0.00000   42.51121   36.36353   33.30914
    6325      444        3     0.00000   29.78577   34.23894   49.07977
    6326      444        4     0.00000   29.37831   33.32386   49.49013
    6327      444        3     0.00000   29.77578   31.50815   42.92919
    6328      444        4     0.00000   29.36201   32.41272   42.50017
    6329      444        3     0.00000   49.09896   47.37605   42.89817
    6330      444        4     0.00000   49.51773   46.47017   42.47757
    6331      444        3     0.00000   49.08766   34.21896   29.78840
    6332      444        4     0.00000   49.51641   33.31807   29.36621
    6333      444        3     0.00000   49.11158   31.49816   35.95212
    6334      444        4     0.00000   49.54717   32.39458   36.37430
    6335      444        3     0.00000   49.10790   44.66840   49.09975
    6336      444        4     0.00000   49.54296   45.55930   49.53376
    6337      449        5     0.00000   40.44604   45.11950   39.56960
    6338      449        6     0.00000   41.28042   44.83585   39.11824
    6339      449        6     0.00000   40.14583   45.91392   39.05988
    6340      450        5     0.00000   32.05915   37.40321   39.12980
    6341      450        6     0.00000   31.37487   36.90348   38.61745
    6342      450        6     0.00000   32.69794   37.72287   38.44421
    6343      451        5     0.00000   38.86114   38.26414   37.08513
    6344      451        6     0.00000   38.64873   38.33775   38.04937
    6345      451        6     0.00000   39.00730   37.29596   36.93608
    6346      452        5     0.00000   49.39286   43.56589   35.33882
    6347      452        6     0.00000   48.81794   44.01777   34.67111
    6348      452        6     0.00000   49.44228   42.62688   35.02889
    6349      453        5     0.00000   49.07005   29.58467   49.87892
    6350      453        6     0.00000   48.43283   30.33860   49.80427
    6351      453        6     0.00000   48.78824   29.10097   50.69569
    6352      454        5     0.00000   45.66971   46.81954   44.70021
    6353      454        6     0.00000   46.51854   46.35924   44.91997
    6354      454        6     0.00000   44.96256   46.19704   45.00515
    6355      455        5     0.00000   51.82975   43.29223   52.43858
    6356      455        6     0.00000   50.87418   43.50858   52.58342
    6357      455        6     0.00000   51.89652   43.09822   51.46987
    6358      456        5     0.00000   50.73933   38.91924   33.17244
    6359      456        6     0.00000   51.07318   39.78831   32.83464
    6360      456        6     0.00000   51.55609   38.41740   33.42007
    6361      457        5     0.00000   31.40852   34.38904   44.33402
    6362      457        6     0.00000   31.16509   35.30807   44.61109
    6363      457        6     0.00000   31.88801   34.01365   45.11451
    6364      458        5     0.00000   52.07948   28.42116   28.68246
    6365      458        6     0.00000   52.85550   28.56259   29.28104
    6366      458        6     0.00000   51.28980   28.59309   29.25502
    6367      459        5     0.00000   30.12225   36.90217   41.91895
    6368      459        6     0.00000   30.65195   36.09486   41.69866
    6369      459        6     0.00000   29.25160   36.75732   41.47048
    6370      460        5     0.00000   46.76328   27.80182   27.51765
    6371      460        6     0.00000   47.44388   28.51422   27.41539
    6372      460        6     0.00000   45.96728   28.14961   27.04263
    6373      461        5     0.00000   39.75309   28.91248   26.52370
    6374      461        6     0.00000   39.21813   29.72688   26.70062
    6375      461        6     0.00000   40.69025   29.23162   26.49873
    6376      462        5     0.00000   38.50783   48.78482   38.07119
    6377      462        6     0.00000   39.29962   48.68309   37.48523
    6378      462        6     0.00000   37.79070   49.10264   37.46683
    6379      463        5     0.00000   31.93691   38.14637   26.55919
    6380      463        6     0.00000   31.57755   38.74784   25.85941
    6381      463        6     0.00000   31.34701   37.35143   26.53106
    6382      464        5     0.00000   46.24778   45.81744   33.65535
    6383      464        6     0.00000   46.81954   45.71834   34.45765
    6384      464        6     0.00000   45.32218   45.78274   34.00550
    6385      465        5     0.00000   38.87586   50.20542   43.65053
    6386      465        6     0.00000   39.02833   51.14784   43.38765
    6387      465        6     0.00000   39.27649   50.13129   44.55300
    6388      466        5     0.00000   47.87526   35.04966   35.30334
    6389      466        6     0.00000   48.76484   34.69503   35.55491
    6390      466        6     0.00000   47.32453   34.24393   35.13641
    6391      467        5     0.00000   42.64134   51.98853   28.04919
    6392      467        6     0.00000   41.79461   51.95225   28.56128
    6393      467        6     0.00000   43.32982   52.21855   28.72295
    6394      468        5     0.00000   42.21548   39.74757   48.53640
    6395      468        6     0.00000   42.20996   38.79358   48.27089
    6396      468        6     0.00000   41.26149   40.01334   48.52720
    6397      469        5     0.00000   36.27704   43.59717   29.67746
    6398      469        6     0.00000   36.52362   43.85058   28.75239
    6399      469        6     0.00000   35.36485   43.96283   29.79996
    6400      470        5     0.00000   42.48992   36.44265   39.81224
    6401      470        6     0.00000   42.03908   35.61932   40.12664
    6402      470        6     0.00000   43.26909   36.11695   39.29568
    6403      471        5     0.00000   29.60464   28.10545   27.83941
    6404      471        6     0.00000   28.89277   27.43458   27.68458
    6405      471        6     0.00000   30.10043   27.76397   28.62568
    6406      472        5     0.00000   37.31305   34.75576   50.75116
    6407      472        6     0.00000   38.10063   34.16454   50.64653
    6408      472        6     0.00000   37.22971   34.88772   51.72907
    6409      473        5     0.00000   41.45838   51.58685   48.91705
    6410      473        6     0.00000   41.67053   51.76981   47.96727
    6411      473        6     0.00000   41.68735   52.42701   49.38787
    6412      474        5     0.00000   36.93029   30.72714   41.82405
    6413      474        6     0.00000   37.75179   31.23739   41.61112
    6414      474        6     0.00000   37.08592   29.83098   41.43341
    6415      475        5     0.00000   51.05347   48.86237   48.67468
    6416      475        6     0.00000   51.86235   49.24670   48.25249
    6417      475        6     0.00000   50.30085   49.36447   48.27247
    6418      476        5     0.00000   37.80463   29.76369   35.88824
    6419      476        6     0.00000   38.53412   30.04733   35.28204
    6420      476        6     0.00000   38.16845   29.90880   36.79754
    6421      477        5     0.00000   43.24281   40.15293   41.62558
    6422      477        6     0.00000   43.52934   39.68185   42.44786
    6423      477        6     0.00000   44.00962   40.05855   41.00597
    6424      478        5     0.00000   35.52152   42.10638   48.52851
    6425      478        6     0.00000   35.96973   42.86873   48.08267
    6426      478        6     0.00000   35.61695   42.29355   49.49617
    6427      479        5     0.00000   27.75135   33.31702   52.08054
    6428      479        6     0.00000   26.98479   33.91849   52.25588
    6429      479        6     0.00000   27.55340   32.91613   51.19700
    6430      480        5     0.00000   47.72700   47.74882   30.66247
    6431      480        6     0.00000   47.04824   47.05928   30.45217
    6432      480        6     0.00000   48.20439   47.89498   29.80732
    6433      481        5     0.00000   33.21713   31.85909   32.80835
    6434      481        6     0.00000   32.42560   31.70846   32.23212
    6435      481        6     0.00000   33.88563   32.27497   32.20741
    6436      482        5     0.00000   38.35720   36.70606   30.44270
    6437      482        6     0.00000   38.85877   37.06331   29.66721
    6438      482        6     0.00000   38.99074   36.08409   30.88040
    6439      483        5     0.00000   26.68090   50.84001   45.87501
    6440      483        6     0.00000   27.34494   50.67361   46.59031
    6441      483        6     0.00000   26.27554   51.71172   46.11161
    6442      484        5     0.00000   38.17345   51.39311   28.25266
    6443      484        6     0.00000   37.88507   52.26061   27.87175
    6444      484        6     0.00000   39.10457   51.28033   27.93536
    6445      485        5     0.00000   48.72830   26.82365   38.41135
    6446      485        6     0.00000   49.05979   25.89805   38.53018
    6447      485        6     0.00000   49.31137   27.37254   38.99389
    6448      486        5     0.00000   29.70612   49.59344   28.33625
    6449      486        6     0.00000   29.29471   49.14865   29.11937
    6450      486        6     0.00000   30.65695   49.31820   28.36570
    6451      487        5     0.00000   29.62620   41.34140   42.01648
    6452      487        6     0.00000   29.56337   42.32904   41.98020
    6453      487        6     0.00000   30.59097   41.15870   42.14345
    6454      488        5     0.00000   51.30084   50.10447   51.71592
    6455      488        6     0.00000   51.04006   49.15732   51.84105
    6456      488        6     0.00000   52.02402   50.07635   51.04032
    6457      489        5     0.00000   51.85630   36.91952   50.56688
    6458      489        6     0.00000   51.00221   36.84722   51.06241
    6459      489        6     0.00000   51.85499   36.14139   49.95463
    6460      490        5     0.00000   50.46988   35.09724   39.89583
    6461      490        6     0.00000   50.88917   35.66453   40.59062
    6462      490        6     0.00000   49.51037   35.34066   39.92238
    6463      491        5     0.00000   26.67275   38.90872   44.13160
    6464      491        6     0.00000   25.99032   38.72602   43.43786
    6465      491        6     0.00000   26.15883   38.96971   44.97571
    6466      492        5     0.00000   29.25975   40.73915   26.62123
    6467      492        6     0.00000   28.53420   40.20445   27.03185
    6468      492        6     0.00000   30.01368   40.66554   27.25924
    6469      493        5     0.00000   52.65309   42.55249   29.66432
    6470      493        6     0.00000   51.95251   42.18078   30.25685
    6471      493        6     0.00000   52.24799   43.37162   29.28288
    6472      494        5     0.00000   44.25331   52.25088   40.39662
    6473      494        6     0.00000   44.35820   52.29925   41.38005
    6474      494        6     0.00000   43.37977   51.80451   40.26150
    6475      495        5     0.00000   42.93944   29.58992   43.71625
    6476      495        6     0.00000   42.58351   30.50974   43.62792
    6477      495        6     0.00000   43.19549   29.33178   42.79539
    6478      496        5     0.00000   51.19148   42.84455   40.65029
    6479      496        6     0.00000   51.77770   42.08482   40.40477
    6480      496        6     0.00000   50.44806   42.80590   39.99730
    6481      497        5     0.00000   34.41112   46.78142   45.22045
    6482      497        6     0.00000   34.81596   46.13737   45.85451
    6483      497        6     0.00000   35.18425   47.19677   44.76198
    6484      498        5     0.00000   41.81616   26.79315   34.94451
    6485      498        6     0.00000   40.90739   26.50583   35.21264
    6486      498        6     0.00000   41.99545   26.29763   34.10618
    6487      499        5     0.00000   35.02021   47.55507   34.34961
    6488      499        6     0.00000   34.37248   47.84056   35.04177
    6489      499        6     0.00000   34.63562   46.72227   33.97685
    6490      500        5     0.00000   49.64707   52.33264   26.89620
    6491      500        6     0.00000   48.87420   52.51218   26.30367
    6492      500        6     0.00000   49.48224   52.89020   27.69746
    6493      501        5     0.00000   46.12606   34.39430   45.75383
    6494      501        6     0.00000   45.74068   34.55492   46.65130
    6495      501        6     0.00000   46.53353   35.25838   45.49726
    6496      502        5     0.00000   27.70166   39.48075   38.97260
    6497      502        6     0.00000   27.79814   38.67450   38.40583
    6498      502        6     0.00000   27.76291   40.23863   38.33827
    6499      503        5     0.00000   44.46283   39.78989   28.68378
    6500      503        6     0.00000   45.39000   39.52202   28.46270
    6501      503        6     0.00000   44.21020   40.42501   27.96743
    6502      504        5     0.00000   39.53674   37.37640   42.21390
    6503      504        6     0.00000   39.58458   36.60616   41.59350
    6504      504        6     0.00000   40.39504   37.35195   42.70680
    6505      505        5     0.00000   31.68191   27.42222   50.78191
    6506      505        6     0.00000   31.51788   28.27185   51.26351
    6507      505        6     0.00000   32.26288   26.90041   51.39048
    6508      506        5     0.00000   50.09869   38.92502   40.05408
    6509      506        6     0.00000   50.91467   38.44158   39.76912
    6510      506        6     0.00000   50.29401   39.87638   39.86192
    6511      507        5     0.00000   52.12128   27.62779   36.70395
    6512      507        6     0.00000   51.68622   27.35703   35.85670
    6513      507        6     0.00000   51.65493   27.10204   37.40137
    6514      508        5     0.00000   45.50804   31.51577   45.69862
    6515      508        6     0.00000   45.23701   31.78444   46.61318
    6516      508        6     0.00000   44.68181   31.60726   45.16025
    6517      509        5     0.00000   39.25598   36.22105   48.44387
    6518      509        6     0.00000   38.74127   36.64376   47.71122
    6519      509        6     0.00000   40.20314   36.32988   48.17652
    6520      510        5     0.00000   39.31171   34.05492   39.13506
    6521      510        6     0.00000   39.07118   35.01180   39.21760
    6522      510        6     0.00000   38.66451   33.69162   38.47918
    6523      511        5     0.00000   44.28460   34.61170   30.26316
    6524      511        6     0.00000   43.96494   34.17006   31.08938
    6525      511        6     0.00000   43.93155   35.53493   30.32125
    6526      512        5     0.00000   28.51317   39.50730   47.99776
    6527      512        6     0.00000   28.70192   40.20892   48.67047
    6528      512        6     0.00000   27.83862   39.91423   47.39787

