# LAMMPS data file written by OVITO Basic 3.5.4
7296 atoms
6 atom types

           0.000000  52.575800 xlo xhi
           0.000000  52.575800 ylo yhi
           0.000000  52.575800 zlo zhi
           0.000000   0.000000   0.000000 xy xz yz

Masses

    1    15.999400000 # O_2
    2    63.546000000 # Cu4+2
    3    12.010700000 # C_R
    4     1.007940000 # H_
    5    15.999400000 # O_3
    6     1.007940000 # H_
    
Atoms  # charge

       1      444        1     0.00000    8.28831    6.35747   24.93591
       2      444        1     0.00000    8.26360   19.55636   11.82035
       3      444        1     0.00000   21.44146    6.44527   11.82403
       4      444        1     0.00000   21.41255   19.55977   24.98691
       5      444        1     0.00000   18.02824   19.86971   24.98271
       6      444        1     0.00000   18.00695    6.68764   11.81405
       7      444        1     0.00000    4.87877   19.84947   11.81536
       8      444        1     0.00000    4.88981    6.69053   24.93512
       9      444        1     0.00000   18.02377    6.43659    1.30940
      10      444        1     0.00000   17.99039   19.54795   14.46229
      11      444        1     0.00000    4.88929    6.40768   14.47570
      12      444        1     0.00000    4.87325   19.56083    1.32202
      13      444        1     0.00000    8.28016   19.84973    1.32412
      14      444        1     0.00000    8.26124    6.72366   14.48858
      15      444        1     0.00000   21.38862   19.81450   14.49725
      16      444        1     0.00000   21.45224    6.72944    1.31939
      17      444        1     0.00000   24.97245    8.29594    6.43081
      18      444        1     0.00000   24.96483   21.40887   19.56871
      19      444        1     0.00000   11.80274    8.26124   19.64547
      20      444        1     0.00000   11.80590   21.42622    6.43344
      21      444        1     0.00000   24.96483   18.01562   19.88075
      22      444        1     0.00000   24.95668    4.86799    6.69763
      23      444        1     0.00000   11.81273   18.01589    6.70657
      24      444        1     0.00000   11.83455    4.75390   19.79584
      25      444        1     0.00000    1.31702   18.01773    6.42213
      26      444        1     0.00000    1.32070    4.82278   19.58159
      27      444        1     0.00000   14.46360   18.00327   19.58659
      28      444        1     0.00000   14.47333    4.87903    6.42345
      29      444        1     0.00000    1.33937    8.27543   19.82686
      30      444        1     0.00000    1.32202   21.43621    6.71892
      31      444        1     0.00000   14.47175    8.29226    6.70972
      32      444        1     0.00000   14.46071   21.40256   19.86997
      33      444        1     0.00000    6.44553   24.96588    8.29962
      34      444        1     0.00000    6.42660   11.83823   21.41465
      35      444        1     0.00000   19.57660   24.96352   21.42516
      36      444        1     0.00000   19.58580   11.82035    8.27964
      37      444        1     0.00000   19.85341   24.94932   18.02824
      38      444        1     0.00000   19.85998   11.81720    4.87930
      39      444        1     0.00000    6.68054   24.96562    4.84749
      40      444        1     0.00000    6.70999   11.83324   18.01089
      41      444        1     0.00000    6.38954    1.26077   17.96594
      42      444        1     0.00000    6.41057   14.44546    4.87351
      43      444        1     0.00000   19.58922    1.32149    4.85564
      44      444        1     0.00000   19.55741   14.44783   18.01694
      45      444        1     0.00000   19.84579    1.32176    8.28936
      46      444        1     0.00000   19.84290   14.46492   21.41439
      47      444        1     0.00000    6.69789    1.27943   21.35498
      48      444        1     0.00000    6.71630   14.45545    8.26018
      49      444        1     0.00000    6.43475    8.23495    1.28101
      50      444        1     0.00000    6.40400   21.37785   14.45624
      51      444        1     0.00000   19.59290    8.29278   14.46203
      52      444        1     0.00000   19.56845   21.41307    1.34331
      53      444        1     0.00000   19.86708   18.02114    1.33043
      54      444        1     0.00000   19.84106    4.85669   14.46807
      55      444        1     0.00000    6.73391   18.01299   14.45782
      56      444        1     0.00000    6.72839    4.84197    1.31492
      57      444        1     0.00000    6.42976   18.00143   24.96614
      58      444        1     0.00000    6.41451    4.88298   11.83061
      59      444        1     0.00000   19.56976   18.00169   11.80984
      60      444        1     0.00000   19.63075    4.89612   24.93644
      61      444        1     0.00000   19.87786    8.29094   24.97692
      62      444        1     0.00000   19.85867   21.41176   11.85164
      63      444        1     0.00000    6.74022    8.25966   11.83718
      64      444        1     0.00000    6.70736   21.40650   24.96982
      65      444        1     0.00000    8.25677   24.92803   19.83816
      66      444        1     0.00000    8.26045   11.81773    6.73049
      67      444        1     0.00000   21.42569   24.95431    6.71419
      68      444        1     0.00000   21.41333   11.81063   19.84211
      69      444        1     0.00000   18.00301   24.96693    6.44264
      70      444        1     0.00000   17.97751   11.81273   19.57607
      71      444        1     0.00000    4.87273   24.92330   19.53980
      72      444        1     0.00000    4.88902   11.79485    6.40768
      73      444        1     0.00000   18.00905    1.32254   19.85946
      74      444        1     0.00000   18.00458   14.45598    6.72471
      75      444        1     0.00000    4.84512    1.33122    6.69421
      76      444        1     0.00000    4.86011   14.47859   19.85446
      77      444        1     0.00000    8.29436    1.32123    6.46367
      78      444        1     0.00000    8.26176   14.47123   19.56635
      79      444        1     0.00000   21.43305    1.31334   19.57897
      80      444        1     0.00000   21.42096   14.46571    6.44132
      81      444        1     0.00000   24.96798    6.44527   17.99170
      82      444        1     0.00000   24.95589   19.58633    4.87088
      83      444        1     0.00000   11.82456    6.44658    4.86195
      84      444        1     0.00000   11.82403   19.56740   18.02036
      85      444        1     0.00000   24.97456   19.85657    8.26754
      86      444        1     0.00000   24.98218    6.69527   21.43384
      87      444        1     0.00000   11.81694   19.85183   21.43410
      88      444        1     0.00000   11.83218    6.71919    8.26308
      89      444        1     0.00000    1.31334    6.44632    8.28227
      90      444        1     0.00000    1.32386   19.57108   21.41570
      91      444        1     0.00000   14.48595    6.47050   21.43673
      92      444        1     0.00000   14.45756   19.57975    8.27491
      93      444        1     0.00000    1.30309   19.84290   18.01904
      94      444        1     0.00000    1.32176    6.70052    4.85748
      95      444        1     0.00000   14.45151   19.86235    4.86352
      96      444        1     0.00000   14.45282    6.65399   17.93991
      97      444        1     0.00000   18.00563   19.85394    1.33043
      98      444        1     0.00000   18.03087    6.72628   14.45230
      99      444        1     0.00000    4.84276   19.81030   14.45335
     100      444        1     0.00000    4.88824    6.65846    1.31650
     101      444        1     0.00000    8.29751    6.40163    1.29468
     102      444        1     0.00000    8.29120   19.58317   14.45966
     103      444        1     0.00000   21.40492    6.42029   14.46807
     104      444        1     0.00000   21.43305   19.58081    1.33385
     105      444        1     0.00000    8.27491   19.84605   24.96010
     106      444        1     0.00000    8.30435    6.69527   11.83613
     107      444        1     0.00000   21.42884   19.85078   11.84217
     108      444        1     0.00000   21.44435    6.72997   24.97508
     109      444        1     0.00000   18.05190    6.44632   24.95931
     110      444        1     0.00000   18.01668   19.57318   11.81957
     111      444        1     0.00000    4.85932    6.45289   11.82535
     112      444        1     0.00000    4.86720   19.56556   24.97166
     113      444        1     0.00000    1.31361   18.00195   19.85841
     114      444        1     0.00000    1.30940    4.87798    6.72313
     115      444        1     0.00000   14.45650   18.01904    6.70999
     116      444        1     0.00000   14.48674    4.89638   19.88417
     117      444        1     0.00000    1.32806    8.27044    6.41477
     118      444        1     0.00000    1.31624   21.41360   19.57607
     119      444        1     0.00000   14.44836    8.19998   19.52087
     120      444        1     0.00000   14.45204   21.42516    6.42818
     121      444        1     0.00000   24.97272    8.24835   19.85998
     122      444        1     0.00000   24.96246   21.43857    6.72865
     123      444        1     0.00000   11.82377    8.28884    6.70972
     124      444        1     0.00000   11.82114   21.40781   19.86261
     125      444        1     0.00000   24.97640   18.01168    6.43344
     126      444        1     0.00000   24.96404    4.88271   19.55715
     127      444        1     0.00000   11.81431   18.00590   19.58475
     128      444        1     0.00000   11.83876    4.87877    6.42161
     129      444        1     0.00000   19.86261    1.32254   18.02036
     130      444        1     0.00000   19.85604   14.46492    4.87273
     131      444        1     0.00000    6.73838    1.32307    4.89297
     132      444        1     0.00000    6.70341   14.47754   17.99801
     133      444        1     0.00000    6.41504    1.33148    8.24757
     134      444        1     0.00000    6.43002   14.47149   21.41412
     135      444        1     0.00000   19.59369    1.34463   21.39704
     136      444        1     0.00000   19.57502   14.46229    8.27333
     137      444        1     0.00000   19.86261   24.96404    8.27727
     138      444        1     0.00000   19.85919   11.80590   21.41570
     139      444        1     0.00000    6.69132   24.94433   21.40072
     140      444        1     0.00000    6.69527   11.80984    8.29226
     141      444        1     0.00000    6.42450   24.91488   17.96541
     142      444        1     0.00000    6.45473   11.80248    4.84617
     143      444        1     0.00000   19.56556   24.95957    4.87930
     144      444        1     0.00000   19.54847   11.80984   18.02246
     145      444        1     0.00000   19.84237   18.00642   24.97692
     146      444        1     0.00000   19.87996    4.87877   11.82745
     147      444        1     0.00000    6.70447   17.98723   11.81273
     148      444        1     0.00000    6.73943    4.78361   24.96352
     149      444        1     0.00000    6.47182    8.23731   24.92540
     150      444        1     0.00000    6.44159   21.41491   11.82456
     151      444        1     0.00000   19.56582    8.25571   11.81983
     152      444        1     0.00000   19.59316   21.43279   24.97166
     153      444        1     0.00000   19.86708    8.27280    1.32885
     154      444        1     0.00000   19.82712   21.37811   14.49646
     155      444        1     0.00000    6.70447    8.29120   14.48095
     156      444        1     0.00000    6.70762   21.40571    1.31571
     157      444        1     0.00000    6.43344   17.99354    1.32254
     158      444        1     0.00000    6.45289    4.84302   14.47859
     159      444        1     0.00000   19.55425   17.98013   14.46281
     160      444        1     0.00000   19.58396    4.87036    1.31308
     161      444        1     0.00000   18.02719    1.32281    6.42082
     162      444        1     0.00000   17.99827   14.45861   19.58817
     163      444        1     0.00000    4.83356    1.25814   19.53690
     164      444        1     0.00000    4.84512   14.44231    6.43528
     165      444        1     0.00000    8.25861    1.28416   19.79216
     166      444        1     0.00000    8.27780   14.46150    6.69474
     167      444        1     0.00000   21.41281    1.31545    6.73075
     168      444        1     0.00000   21.40624   14.45256   19.85183
     169      444        1     0.00000    8.24967   24.97377    6.40032
     170      444        1     0.00000    8.26938   11.84086   19.58081
     171      444        1     0.00000   21.43384   24.97272   19.56871
     172      444        1     0.00000   21.42648   11.82929    6.43291
     173      444        1     0.00000   18.00695   24.97114   19.86603
     174      444        1     0.00000   18.01299   11.81089    6.71945
     175      444        1     0.00000    4.88193   24.97009    6.73759
     176      444        1     0.00000    4.85879   11.83140   19.85473
     177      444        1     0.00000    1.32912   19.85026    8.26938
     178      444        1     0.00000    1.33648    6.71498   21.39309
     179      444        1     0.00000   14.46465   19.84999   21.44067
     180      444        1     0.00000   14.47123    6.71367    8.26045
     181      444        1     0.00000    1.30756    6.37797   18.01063
     182      444        1     0.00000    1.32675   19.58922    4.87220
     183      444        1     0.00000   14.47780    6.44185    4.86274
     184      444        1     0.00000   14.45966   19.56582   18.02193
     185      444        1     0.00000   24.95274   19.83028   18.02062
     186      444        1     0.00000   24.96851    6.72891    4.87010
     187      444        1     0.00000   11.80879   19.86393    4.86826
     188      444        1     0.00000   11.80300    6.72155   18.06031
     189      444        1     0.00000   24.95826    6.43423    8.25887
     190      444        1     0.00000   24.95773   19.58265   21.44173
     191      444        1     0.00000   11.87004    6.28754   21.38626
     192      444        1     0.00000   11.81220   19.57634    8.27385
     193      444        2     0.00000    7.33064    7.26598   -0.03417
     194      444        2     0.00000    7.31277   20.44752   13.13948
     195      444        2     0.00000   20.47906    7.33196   13.14395
     196      444        2     0.00000   20.48563   20.48406    0.01025
     197      444        2     0.00000   18.97776   18.97724    0.00789
     198      444        2     0.00000   18.97066    5.81883   13.14080
     199      444        2     0.00000    5.80963   18.93465   13.13659
     200      444        2     0.00000    5.81068    5.75311   -0.02813
     201      444        2     0.00000   18.99774    7.31934   -0.00158
     202      444        2     0.00000   18.96909   20.43148   13.15893
     203      444        2     0.00000    5.82671    7.32512   13.15394
     204      444        2     0.00000    5.83618   20.43832    0.00105
     205      444        2     0.00000    7.35457   18.93097    0.00499
     206      444        2     0.00000    7.33827    5.80384   13.16104
     207      444        2     0.00000   20.48958   18.91309   13.15473
     208      444        2     0.00000   20.51639    5.80963    0.00394
     209      444        2     0.00000   -0.00131    7.33669    7.32197
     210      444        2     0.00000   -0.00657   20.48248   20.49273
     211      444        2     0.00000   13.14290    7.24757   20.43096
     212      444        2     0.00000   13.13186   20.47775    7.32828
     213      444        2     0.00000   -0.01078   18.96435   18.98591
     214      444        2     0.00000   -0.00499    5.82224    5.81541
     215      444        2     0.00000   13.13186   18.96987    5.81620
     216      444        2     0.00000   13.14448    5.75416   18.91888
     217      444        2     0.00000    0.00447   18.98906    7.29253
     218      444        2     0.00000    0.00789    5.79701   20.46960
     219      444        2     0.00000   13.14080   18.92781   20.51113
     220      444        2     0.00000   13.15420    5.84433    7.29463
     221      444        2     0.00000    0.00946    7.31540   18.95331
     222      444        2     0.00000   -0.00131   20.51219    5.79333
     223      444        2     0.00000   13.15052    7.36482    5.78492
     224      444        2     0.00000   13.14132   20.44252   18.98670
     225      444        2     0.00000    7.32328    0.00394    7.32696
     226      444        2     0.00000    7.29778   13.15525   20.44410
     227      444        2     0.00000   20.48695   -0.00631   20.48537
     228      444        2     0.00000   20.45908   13.14526    7.31277
     229      444        2     0.00000   18.94201   -0.00131   18.94201
     230      444        2     0.00000   18.94543   13.14342    5.79937
     231      444        2     0.00000    5.81015    0.00526    5.81804
     232      444        2     0.00000    5.78202   13.15368   18.92650
     233      444        2     0.00000    7.34142   -0.05126   18.88365
     234      444        2     0.00000    7.32302   13.13186    5.81409
     235      444        2     0.00000   20.48590   -0.00421    5.80437
     236      444        2     0.00000   20.43516   13.13028   18.97855
     237      444        2     0.00000   18.97250    0.00053    7.31934
     238      444        2     0.00000   18.92703   13.12029   20.48932
     239      444        2     0.00000    5.82645   -0.04259   20.40519
     240      444        2     0.00000    5.81068   13.12476    7.32539
     241      444        3     0.00000    8.51123    4.56095   23.34681
     242      444        3     0.00000    7.82643    5.25521   24.47719
     243      444        3     0.00000    8.47154   17.80190   10.20049
     244      444        3     0.00000    7.79121   18.46909   11.33771
     245      444        3     0.00000   17.81768   21.62548   23.36416
     246      444        3     0.00000   18.50353   20.95382   24.49743
     247      444        3     0.00000   17.81242    8.45997   10.20575
     248      444        3     0.00000   18.48092    7.77859   11.34007
     249      444        3     0.00000    4.68661    8.46838   23.33104
     250      444        3     0.00000    5.37351    7.77622   24.45563
     251      444        3     0.00000   17.81426    4.66821    2.92111
     252      444        3     0.00000   18.49406    5.34617    1.78679
     253      444        3     0.00000   17.78797   17.78324   16.07453
     254      444        3     0.00000   18.46672   18.45936   14.93968
     255      444        3     0.00000    4.65664    4.62562   16.06716
     256      444        3     0.00000    5.35931    5.31515   14.95019
     257      444        3     0.00000    8.47154   21.62022    2.92584
     258      444        3     0.00000    7.79831   20.93752    1.79520
     259      444        3     0.00000    8.47469    8.48889   16.10292
     260      444        3     0.00000    7.79094    7.81382   14.96412
     261      444        3     0.00000   23.37336    8.50361    4.65611
     262      444        3     0.00000   24.49796    7.82170    5.34065
     263      444        3     0.00000   10.19392    8.48284   17.85790
     264      444        3     0.00000   11.32430    7.80277   18.54848
     265      444        3     0.00000   23.34208   17.81294   21.62968
     266      444        3     0.00000   24.48192   18.49301   20.96434
     267      444        3     0.00000   23.34707    4.66926    8.46760
     268      444        3     0.00000   24.47982    5.34512    7.78542
     269      444        3     0.00000   10.20049   17.81110    8.47049
     270      444        3     0.00000   11.33508   18.48881    7.79568
     271      444        3     0.00000    2.93215   17.80690    4.66295
     272      444        3     0.00000    1.79836   18.49459    5.34012
     273      444        3     0.00000   16.06979   17.79822   17.81741
     274      444        3     0.00000   14.93836   18.47829   18.49696
     275      444        3     0.00000   16.09634    4.68056    4.66452
     276      444        3     0.00000   14.95650    5.35511    5.33934
     277      444        3     0.00000    2.94451    8.48179   21.60603
     278      444        3     0.00000    1.81413    7.80304   20.91886
     279      444        3     0.00000   16.09293    8.46602    8.46786
     280      444        3     0.00000   14.95308    7.80356    7.79200
     281      444        3     0.00000    4.67504   23.34891    8.48968
     282      444        3     0.00000    5.35485   24.48954    7.82459
     283      444        3     0.00000    4.66952   10.21706   21.61785
     284      444        3     0.00000    5.33960   11.35611   20.94173
     285      444        3     0.00000   21.60497   23.32341   17.83424
     286      444        3     0.00000   20.94541   24.47824   18.49643
     287      444        3     0.00000   21.63310   10.22021    4.66584
     288      444        3     0.00000   20.95356   11.34954    5.34643
     289      444        3     0.00000    8.45866   23.35391    4.64928
     290      444        3     0.00000    7.77386   24.49191    5.31646
     291      444        3     0.00000    4.60669    2.85040   17.75196
     292      444        3     0.00000    5.29491    1.72606   18.43938
     293      444        3     0.00000    4.64533   16.05586    4.66058
     294      444        3     0.00000    5.31936   14.91996    5.34486
     295      444        3     0.00000   21.61654    2.93636    8.48600
     296      444        3     0.00000   20.93516    1.79836    7.81513
     297      444        3     0.00000   21.60944   16.08057   21.61470
     298      444        3     0.00000   20.93227   14.94020   20.93700
     299      444        3     0.00000    8.47338   16.07610    8.46444
     300      444        3     0.00000    7.80225   14.93757    7.78464
     301      444        3     0.00000    4.68608    8.43710    2.92111
     302      444        3     0.00000    5.35747    7.75572    1.77943
     303      444        3     0.00000    4.64165   21.58131   16.06138
     304      444        3     0.00000    5.31541   20.90019   14.92969
     305      444        3     0.00000   21.62627   17.80716    2.94477
     306      444        3     0.00000   20.95698   18.48959    1.80782
     307      444        3     0.00000   21.59577    4.67846   16.09818
     308      444        3     0.00000   20.92464    5.33776   14.95151
     309      444        3     0.00000    8.49231    4.65559    2.93610
     310      444        3     0.00000    7.81881    5.32093    1.78784
     311      444        3     0.00000    4.66426   17.81032   23.35102
     312      444        3     0.00000    5.34091   18.47987   24.48981
     313      444        3     0.00000    4.66452    4.68503   10.20233
     314      444        3     0.00000    5.33250    5.36273   11.34638
     315      444        3     0.00000   21.63074    8.47653   23.34918
     316      444        3     0.00000   20.96355    7.81408   24.49559
     317      444        3     0.00000   21.62600   21.61917   10.23178
     318      444        3     0.00000   20.95119   20.94199   11.37162
     319      444        3     0.00000    8.48994    8.46576   10.21495
     320      444        3     0.00000    7.82643    7.78358   11.35690
     321      444        3     0.00000    8.46339   23.33787   21.61628
     322      444        3     0.00000    7.78122   24.46352   20.93227
     323      444        3     0.00000    8.47128   10.20155    8.48679
     324      444        3     0.00000    7.78595   11.33666    7.81671
     325      444        3     0.00000   17.80164   23.34996    4.67478
     326      444        3     0.00000   18.47592   24.48639    5.35379
     327      444        3     0.00000   17.78560   10.19445   17.80611
     328      444        3     0.00000   18.45673   11.33298   18.49038
     329      444        3     0.00000    4.69318   10.17552    4.64849
     330      444        3     0.00000    5.36904   11.31694    5.32146
     331      444        3     0.00000   17.84528    2.97316   21.59709
     332      444        3     0.00000   18.50221    1.81860   20.93043
     333      444        3     0.00000   17.80847   16.07926    8.47548
     334      444        3     0.00000   18.48565   14.94047    7.80383
     335      444        3     0.00000    4.66347    2.95423    8.46234
     336      444        3     0.00000    5.32908    1.81413    7.77701
     337      444        3     0.00000    8.49783    2.93347    4.68661
     338      444        3     0.00000    7.82275    1.80046    5.37351
     339      444        3     0.00000    8.47837   16.08005   17.80085
     340      444        3     0.00000    7.79331   14.94888   18.47592
     341      444        3     0.00000   23.34076    4.68503   17.81110
     342      444        3     0.00000   24.48481    5.36037   18.47198
     343      444        3     0.00000   10.21916    4.67136    4.67057
     344      444        3     0.00000   11.35453    5.35432    5.33802
     345      444        3     0.00000   23.35680   21.61680    8.49678
     346      444        3     0.00000   24.48981   20.94883    7.81145
     347      444        3     0.00000   10.19839   21.61128   21.62075
     348      444        3     0.00000   11.33981   20.93700   20.95146
     349      444        3     0.00000   10.21101    8.47837    8.47548
     350      444        3     0.00000   11.34928    7.80751    7.79515
     351      444        3     0.00000    2.92979    4.68214    8.47837
     352      444        3     0.00000    1.78968    5.35642    7.80829
     353      444        3     0.00000   16.12973    4.72210   21.60655
     354      444        3     0.00000   14.97438    5.38718   20.95961
     355      444        3     0.00000    2.91848   21.59682   17.79822
     356      444        3     0.00000    1.78574   20.93069   18.48618
     357      444        3     0.00000    2.94924    8.45498    4.65112
     358      444        3     0.00000    1.80598    7.78805    5.32908
     359      444        3     0.00000   16.06638   21.62364    4.66742
     360      444        3     0.00000   14.92942   20.94988    5.34012
     361      444        3     0.00000   17.79927   21.61812    2.94556
     362      444        3     0.00000   18.47619   20.94120    1.81202
     363      444        3     0.00000   17.81373    8.47653   16.06532
     364      444        3     0.00000   18.50274    7.81303   14.93310
     365      444        3     0.00000    8.49231   17.81294   16.07137
     366      444        3     0.00000    7.81960   18.49275   14.93705
     367      444        3     0.00000    8.46602   21.61233   23.35023
     368      444        3     0.00000    7.79515   20.93595   24.48849
     369      444        3     0.00000   17.88892    4.73156   23.29818
     370      444        3     0.00000   18.54664    5.37929   24.45642
     371      444        3     0.00000   17.81110   17.81873   10.19392
     372      444        3     0.00000   18.48565   18.48723   11.33245
     373      444        3     0.00000    2.93688   17.81110   21.61628
     374      444        3     0.00000    1.79809   18.48171   20.94147
     375      444        3     0.00000   16.07794   17.81610    8.46970
     376      444        3     0.00000   14.93731   18.49275    7.79725
     377      444        3     0.00000   16.06690    8.44236   17.77667
     378      444        3     0.00000   14.92732    7.74258   18.42861
     379      444        3     0.00000   23.35732    8.45918   21.61628
     380      444        3     0.00000   24.49769    7.77859   20.95040
     381      444        3     0.00000   23.35075   17.81110    4.67951
     382      444        3     0.00000   24.48876   18.49012    5.34959
     383      444        3     0.00000   10.21443   17.80427   17.80821
     384      444        3     0.00000   11.34428   18.48039   18.49301
     385      444        3     0.00000   21.61444    2.94740   17.82767
     386      444        3     0.00000   20.95093    1.79888   18.49669
     387      444        3     0.00000   21.62548   16.07216    4.67136
     388      444        3     0.00000   20.94567   14.94047    5.35116
     389      444        3     0.00000    4.66794   16.08346   21.61969
     390      444        3     0.00000    5.34144   14.95151   20.94278
     391      444        3     0.00000   21.62390   23.34550    8.49125
     392      444        3     0.00000   20.94935   24.48061    7.80567
     393      444        3     0.00000   21.62390   10.19050   21.60340
     394      444        3     0.00000   20.94541   11.32772   20.92990
     395      444        3     0.00000    4.65559   23.31421   17.78482
     396      444        3     0.00000    5.33907   24.44275   18.45200
     397      444        3     0.00000   21.61049   17.80479   23.36101
     398      444        3     0.00000   20.93227   18.47882   24.50032
     399      444        3     0.00000   21.63231    4.67294   10.21127
     400      444        3     0.00000   20.96565    5.35485   11.34822
     401      444        3     0.00000    4.67767   21.61339   10.20996
     402      444        3     0.00000    5.35432   20.93910   11.34402
     403      444        3     0.00000   21.64362    8.50072    2.92532
     404      444        3     0.00000   20.96565    7.81276    1.79783
     405      444        3     0.00000   21.56134   21.55135   16.14208
     406      444        3     0.00000   20.90046   20.89021   14.98857
     407      444        3     0.00000    4.66768   17.79691    2.93794
     408      444        3     0.00000    5.34748   18.47382    1.80256
     409      444        3     0.00000   17.82214    2.94030    4.65716
     410      444        3     0.00000   18.50116    1.80125    5.33224
     411      444        3     0.00000   17.79481   16.06164   17.81400
     412      444        3     0.00000   18.47224   14.92916   18.49301
     413      444        3     0.00000    8.46865    2.86932   21.57685
     414      444        3     0.00000    7.78464    1.75445   20.88469
     415      444        3     0.00000    8.47680   10.22363   17.82767
     416      444        3     0.00000    7.79804   11.36058   18.49354
     417      444        3     0.00000   17.81242   23.34891   21.62548
     418      444        3     0.00000   18.48670   24.48876   20.95040
     419      444        3     0.00000   17.83135   10.18919    8.47548
     420      444        3     0.00000   18.49880   11.33429    7.80619
     421      444        3     0.00000    2.94188   21.61917    8.48416
     422      444        3     0.00000    1.80440   20.94541    7.80304
     423      444        3     0.00000   16.08557   21.61260   21.62863
     424      444        3     0.00000   14.94336   20.93437   20.95829
     425      444        3     0.00000    2.89325    4.59644   17.77246
     426      444        3     0.00000    1.78022    5.28545   18.47882
     427      444        3     0.00000   23.33051   21.58841   17.82872
     428      444        3     0.00000   24.47772   20.92175   18.49091
     429      444        3     0.00000   10.19471   21.62653    4.66400
     430      444        3     0.00000   11.32930   20.95146    5.34380
     431      444        3     0.00000   10.25544    4.53282   21.61312
     432      444        3     0.00000   11.38292    5.20737   20.90913
     433      444        3     0.00000    9.71154    5.06594   22.80370
     434      444        4     0.00000   10.19629    5.90163   23.28898
     435      444        3     0.00000    9.62295   18.36841    9.62531
     436      444        4     0.00000   10.04487   19.27297   10.04881
     437      444        3     0.00000   16.66889   21.05556   22.78320
     438      444        4     0.00000   16.25302   20.14836   23.20275
     439      444        3     0.00000   16.65996    7.90503    9.62137
     440      444        4     0.00000   16.23409    7.00205   10.04382
     441      444        3     0.00000    3.52626   21.04872    9.62926
     442      444        4     0.00000    3.10644   20.13916   10.04461
     443      444        3     0.00000   16.66837    5.23734    3.50602
     444      444        4     0.00000   16.24855    6.14348    3.08410
     445      444        3     0.00000   16.64208   18.35369   16.65943
     446      444        4     0.00000   16.22305   19.25983   16.23909
     447      444        3     0.00000    3.52153   18.36762    3.51890
     448      444        4     0.00000    3.11144   19.27876    3.10434
     449      444        3     0.00000    9.62163   21.06187    3.51049
     450      444        4     0.00000   10.04513   20.15756    3.09356
     451      444        3     0.00000    9.62295    7.92317   16.69492
     452      444        4     0.00000   10.04776    7.02018   16.27247
     453      444        3     0.00000   22.78688    9.64582    5.22630
     454      444        4     0.00000   23.20065   10.06012    6.13901
     455      444        3     0.00000   22.77294   22.75875   18.37656
     456      444        4     0.00000   23.22457   23.20591   19.25431
     457      444        3     0.00000    9.61664    9.63793   18.40863
     458      444        4     0.00000   10.02515   10.05170   19.32240
     459      444        3     0.00000   22.76059   16.66600   21.05529
     460      444        4     0.00000   23.18304   16.25433   20.14652
     461      444        3     0.00000   22.76558    3.51390    7.91397
     462      444        4     0.00000   23.18146    3.09014    7.00809
     463      444        3     0.00000    9.63215    3.42505   21.02217
     464      444        4     0.00000   10.02699    3.02258   20.09841
     465      444        3     0.00000    3.49445   16.64129    5.21894
     466      444        4     0.00000    3.06596   16.21122    6.11641
     467      444        3     0.00000    3.43925    3.41217   18.29717
     468      444        4     0.00000    2.99472    2.96317   19.17439
     469      444        3     0.00000    3.51916    9.63846   21.05214
     470      444        4     0.00000    3.09777   10.06117   20.14784
     471      444        3     0.00000    3.52389   22.77058    7.92291
     472      444        4     0.00000    3.10565   23.19092    7.01677
     473      444        3     0.00000    5.23786   22.76611    9.63688
     474      444        4     0.00000    6.14033   23.18803   10.06038
     475      444        3     0.00000   18.37498   22.77689   22.78136
     476      444        4     0.00000   19.27849   23.20223   23.20117
     477      444        3     0.00000   18.38339    9.61138    9.63110
     478      444        4     0.00000   19.28401   10.03514   10.05670
     479      444        3     0.00000   21.00876   22.71143   16.71648
     480      444        4     0.00000   20.10183   23.13046   16.30165
     481      444        3     0.00000   21.07238    9.64398    3.51154
     482      444        4     0.00000   20.16387   10.06169    3.09514
     483      444        3     0.00000    7.90582   22.77294    3.49655
     484      444        4     0.00000    7.00231   23.19355    3.07174
     485      444        3     0.00000    5.19580    3.45528   16.62736
     486      444        4     0.00000    6.11089    3.04729   16.21622
     487      444        3     0.00000   18.37498    3.51311    3.49761
     488      444        4     0.00000   19.27429    3.08646    3.07016
     489      444        3     0.00000   21.06344    3.51916    9.63977
     490      444        4     0.00000   20.15914    3.10092   10.06564
     491      444        3     0.00000    7.91029    3.44766   22.73167
     492      444        4     0.00000    6.97944    3.06044   23.12625
     493      444        3     0.00000    5.25495    9.58720    3.50023
     494      444        4     0.00000    6.16057   10.00439    3.07831
     495      444        3     0.00000   18.35868    9.63005   16.65260
     496      444        4     0.00000   19.25957   10.06327   16.23672
     497      444        3     0.00000   21.06555   16.64944    3.51706
     498      444        4     0.00000   20.16282   16.22673    3.09041
     499      444        3     0.00000    7.92317   16.66206   16.64734
     500      444        4     0.00000    7.01755   16.24592   16.22279
     501      444        3     0.00000    7.93789    3.50207    3.52284
     502      444        4     0.00000    7.04069    3.07148    3.09724
     503      444        3     0.00000    5.22709   16.65891   22.77321
     504      444        4     0.00000    6.13165   16.23593   23.19513
     505      444        3     0.00000    5.23077    3.53467    9.61480
     506      444        4     0.00000    6.13954    3.11774   10.02962
     507      444        3     0.00000   18.37156   16.66259    9.62163
     508      444        4     0.00000   19.27560   16.24198   10.04513
     509      444        3     0.00000   21.06187    9.61664   22.75717
     510      444        4     0.00000   20.15020   10.03094   23.16831
     511      444        3     0.00000    7.91660    9.61480    9.63793
     512      444        4     0.00000    7.00967   10.03067   10.05880
     513      444        3     0.00000    9.61717   22.76006   21.05477
     514      444        4     0.00000   10.03830   23.17804   20.14915
     515      444        3     0.00000    9.62637    9.63110    7.91897
     516      444        4     0.00000   10.04171   10.05775    7.01230
     517      444        3     0.00000   16.64813   22.77268    5.23340
     518      444        4     0.00000   16.22805   23.19066    6.13928
     519      444        3     0.00000   16.63498    9.59614   18.35763
     520      444        4     0.00000   16.20702   10.00544   19.26535
     521      444        3     0.00000    3.53388    9.60665    5.20895
     522      444        4     0.00000    3.11117   10.03488    6.11010
     523      444        3     0.00000   16.68440    3.55097   21.05240
     524      444        4     0.00000   16.23541    3.11301   20.16939
     525      444        3     0.00000   16.65812   16.66180    7.90924
     526      444        4     0.00000   16.23909   16.24329    7.00283
     527      444        3     0.00000    3.51022    3.53415    7.90898
     528      444        4     0.00000    3.08462    3.11406    7.00651
     529      444        3     0.00000    9.64871    3.51890    5.23892
     530      444        4     0.00000   10.07379    3.09908    6.14217
     531      444        3     0.00000    9.63189   16.65181   18.36499
     532      444        4     0.00000   10.05144   16.22437   19.26745
     533      444        3     0.00000   22.75218    5.24391   16.66443
     534      444        4     0.00000   23.17252    6.14559   16.23514
     535      444        3     0.00000   22.77505   18.37025    3.52626
     536      444        4     0.00000   23.19618   19.27429    3.10434
     537      444        3     0.00000    9.63557    5.22971    3.51758
     538      444        4     0.00000   10.05013    6.13691    3.09777
     539      444        3     0.00000   22.77978   21.05635    9.65160
     540      444        4     0.00000   23.20538   20.15309   10.07142
     541      444        3     0.00000   22.77952    7.90661   22.77189
     542      444        4     0.00000   23.19881    7.00257   23.19618
     543      444        3     0.00000    9.63872    7.90845    9.62689
     544      444        4     0.00000   10.06511    7.00362   10.04198
     545      444        3     0.00000    3.51022    5.24417    9.62873
     546      444        4     0.00000    3.08988    6.14953   10.05065
     547      444        3     0.00000    3.51522   18.37524   22.76769
     548      444        4     0.00000    3.09645   19.28139   23.18724
     549      444        3     0.00000    3.49103   21.02533   16.64629
     550      444        4     0.00000    3.06832   20.11892   16.23146
     551      444        3     0.00000    3.52994    7.88322    3.50339
     552      444        4     0.00000    3.10408    6.97891    3.08673
     553      444        3     0.00000   16.64550   21.05819    3.51916
     554      444        4     0.00000   16.22621   20.15441    3.09409
     555      444        3     0.00000   16.66469    7.89557   16.63051
     556      444        4     0.00000   16.25933    6.98627   16.20491
     557      444        3     0.00000    9.64266   18.37077   16.65496
     558      444        4     0.00000   10.06432   19.27771   16.23909
     559      444        3     0.00000    9.61454   21.04793   22.76926
     560      444        4     0.00000   10.03462   20.14310   23.19040
     561      444        3     0.00000   16.74329    5.30648   22.72352
     562      444        4     0.00000   16.33846    6.22366   23.13414
     563      444        3     0.00000   16.65891   18.38050    9.61927
     564      444        4     0.00000   16.23698   19.28375   10.04434
     565      444        3     0.00000    3.51864   16.66259   21.05424
     566      444        4     0.00000    3.10092   16.24303   20.14705
     567      444        3     0.00000    3.50497   22.74561   18.35395
     568      444        4     0.00000    3.09172   23.16963   19.26114
     569      444        3     0.00000   22.77584    9.60718   21.04320
     570      444        4     0.00000   23.19513   10.02279   20.13495
     571      444        3     0.00000   22.77505   22.76532    7.93080
     572      444        4     0.00000   23.18777   23.17962    7.01834
     573      444        3     0.00000   22.77373   16.65601    5.23734
     574      444        4     0.00000   23.19381   16.23646    6.14085
     575      444        3     0.00000   22.76874    3.53125   18.38103
     576      444        4     0.00000   23.19907    3.11038   19.28165
     577      444        3     0.00000   21.03505    3.53257   16.68782
     578      444        4     0.00000   20.12707    3.11144   16.27431
     579      444        3     0.00000   18.43360    3.56858   22.72694
     580      444        4     0.00000   19.33948    3.14587   23.14308
     581      444        3     0.00000   21.06265   22.76926    9.64687
     582      444        4     0.00000   20.15888   23.19119   10.06800
     583      444        3     0.00000    7.90372   22.76480   22.77137
     584      444        4     0.00000    7.00047   23.18777   23.19487
     585      444        3     0.00000    5.21105   22.73115   16.63367
     586      444        4     0.00000    6.11641   23.14807   16.21070
     587      444        3     0.00000   18.36630   22.76795    3.52521
     588      444        4     0.00000   19.27271   23.18935    3.10329
     589      444        3     0.00000   21.04925   16.65444   22.77347
     590      444        4     0.00000   20.14231   16.22936   23.18803
     591      444        3     0.00000    7.90977   16.65207    9.61717
     592      444        4     0.00000    7.00441   16.23278   10.03803
     593      444        3     0.00000    5.24049    9.62952   22.76164
     594      444        4     0.00000    6.14453   10.05197   23.18225
     595      444        3     0.00000    7.91976    9.64687   16.67257
     596      444        4     0.00000    7.02360   10.07536   16.23909
     597      444        3     0.00000    5.21894   16.63656    3.51285
     598      444        4     0.00000    6.12429   16.21411    3.09330
     599      444        3     0.00000   18.34764   16.62999   16.65260
     600      444        4     0.00000   19.24485   16.20123   16.22410
     601      444        3     0.00000   16.67731    3.52862    5.22682
     602      444        4     0.00000   16.26038    3.11380    6.13533
     603      444        3     0.00000   16.64918   16.64681   18.38050
     604      444        4     0.00000   16.23173   16.22962   19.28848
     605      444        3     0.00000    9.62216   16.66048    7.90425
     606      444        4     0.00000   10.04329   16.24250    6.99915
     607      444        3     0.00000    9.60875   22.77663    5.22262
     608      444        4     0.00000   10.01963   23.19408    6.13297
     609      444        3     0.00000   16.66364   22.76296   21.06108
     610      444        4     0.00000   16.24250   23.17909   20.15283
     611      444        3     0.00000   16.68808    9.60665    7.89846
     612      444        4     0.00000   16.27799   10.01990    6.98575
     613      444        3     0.00000    3.52547    7.91608   22.75770
     614      444        4     0.00000    3.09908    7.01545   23.18172
     615      444        3     0.00000    3.50023    5.18687   16.64445
     616      444        4     0.00000    3.10171    6.11535   16.24908
     617      444        3     0.00000   22.72300   20.99983   16.70675
     618      444        4     0.00000   23.13519   20.08842   16.29324
     619      444        3     0.00000   22.80528    7.95078    3.49498
     620      444        4     0.00000   23.23430    7.05436    3.06596
     621      444        3     0.00000   22.77794    5.23366    9.62242
     622      444        4     0.00000   23.20144    6.13849   10.03961
     623      444        3     0.00000   22.76348   18.36762   22.78504
     624      444        4     0.00000   23.18067   19.27035   23.21064
     625        1        5     0.00000    9.82484   13.50015   12.15395
     626        1        6     0.00000    9.24677   14.23095   11.81851
     627        1        6     0.00000    9.83325   13.62081   13.13685
     628        2        5     0.00000   15.41890    2.81649   10.05749
     629        2        6     0.00000   15.35213    2.64377   11.03014
     630        2        6     0.00000   16.17600    3.44897    9.96863
     631        3        5     0.00000   24.01768   23.43619   24.24848
     632        3        6     0.00000   24.59864   22.63967   24.33839
     633        3        6     0.00000   23.12073   23.06684   24.04949
     634        4        5     0.00000   11.92866   24.90831    1.63590
     635        4        6     0.00000   12.07272   24.80710    0.66140
     636        4        6     0.00000   12.42024   24.14964    2.04047
     637        5        5     0.00000   22.27400    9.73914   16.64576
     638        5        6     0.00000   21.82053   10.43472   17.18493
     639        5        6     0.00000   22.36627    8.96917   17.26116
     640        6        5     0.00000    0.68375   21.20960   12.23859
     641        6        6     0.00000    1.46818   21.43568   11.67866
     642        6        6     0.00000    0.47713   20.26955   12.00700
     643        7        5     0.00000   13.18654    2.37958   16.32189
     644        7        6     0.00000   13.37791    1.68584   15.64183
     645        7        6     0.00000   13.64132    3.19161   15.98357
     646        8        5     0.00000    5.12246    0.89773   23.82551
     647        8        6     0.00000    5.85300    1.13800   24.44932
     648        8        6     0.00000    4.87115    1.75288   23.39387
     649        9        5     0.00000    2.61538   16.23041    0.28365
     650        9        6     0.00000    3.54597   16.56401    0.22818
     651        9        6     0.00000    2.06255   17.04849    0.36120
     652       10        5     0.00000   14.62816   11.85768    8.65766
     653       10        6     0.00000   15.37842   11.83166    9.30355
     654       10        6     0.00000   13.81429   11.85216    9.22074
     655       11        5     0.00000   22.47326   16.18967   15.67285
     656       11        6     0.00000   21.69830   16.66574   16.06217
     657       11        6     0.00000   22.24535   16.09214   14.71413
     658       12        5     0.00000   11.03067   25.82076    7.37533
     659       12        6     0.00000   11.66946   26.55867    7.20946
     660       12        6     0.00000   11.45364   25.02924    6.95736
     661       13        5     0.00000   13.90157   15.67968   23.90569
     662       13        6     0.00000   13.37712   15.78063   23.07184
     663       13        6     0.00000   13.88790   16.58030   24.31657
     664       14        5     0.00000   24.27872   14.54799   25.33838
     665       14        6     0.00000   23.71195   15.35844   25.39043
     666       14        6     0.00000   24.37414   14.37317   24.36836
     667       15        5     0.00000    0.29837   26.32759   10.98492
     668       15        6     0.00000   -0.61067   26.17118   10.62504
     669       15        6     0.00000    0.78680   25.48717   10.79723
     670       16        5     0.00000    1.31255   25.65568   15.75933
     671       16        6     0.00000    1.78784   24.86625   16.12184
     672       16        6     0.00000    1.54152   25.66409   14.79614
     673       17        5     0.00000   26.18249    0.84095   19.56056
     674       17        6     0.00000   25.98585    1.73132   19.17413
     675       17        6     0.00000   26.55656    1.03574   20.45672
     676       18        5     0.00000   25.03528   18.02062   12.35926
     677       18        6     0.00000   24.22377   17.68571   12.81667
     678       18        6     0.00000   24.69774   18.43676   11.52646
     679       19        5     0.00000   14.43758   16.09950    4.35485
     680       19        6     0.00000   15.11370   16.64708    3.88193
     681       19        6     0.00000   14.60161   15.17495    4.04098
     682       20        5     0.00000   23.18067    1.77680   14.62790
     683       20        6     0.00000   23.14860    1.55335   15.59162
     684       20        6     0.00000   22.51979    2.50313   14.51250
     685       21        5     0.00000   13.08769    7.79778   25.97271
     686       21        6     0.00000   12.35689    7.53832   25.35731
     687       21        6     0.00000   12.88133    8.73337   26.22297
     688       22        5     0.00000    9.93078    3.59829    9.16449
     689       22        6     0.00000    9.01990    3.77231    9.51149
     690       22        6     0.00000   10.44445    4.41269    9.39556
     691       23        5     0.00000    7.92081    1.20845   13.93916
     692       23        6     0.00000    8.31276    2.10829   14.07060
     693       23        6     0.00000    8.65555    0.58333   14.16208
     694       24        5     0.00000   24.64280   12.30537    2.86486
     695       24        6     0.00000   24.87598   12.23833    3.82463
     696       24        6     0.00000   23.68435   12.55484    2.85907
     697       25        5     0.00000   19.14548   26.29710   12.01541
     698       25        6     0.00000   19.37523   25.37203   11.74622
     699       25        6     0.00000   18.18834   26.25241   12.26593
     700       26        5     0.00000    0.58491    7.93816   11.97282
     701       26        6     0.00000    0.37723    7.81119   11.01305
     702       26        6     0.00000    1.55992    8.11008   11.99569
     703       27        5     0.00000    8.64267   23.87677   13.13159
     704       27        6     0.00000    8.78620   24.04712   14.09636
     705       27        6     0.00000    8.22128   24.70642   12.79274
     706       28        5     0.00000   16.89313   13.12791    4.15612
     707       28        6     0.00000   16.34214   13.03722    3.34172
     708       28        6     0.00000   17.26405   14.04326    4.09513
     709       29        5     0.00000   15.99750   24.02714    0.15930
     710       29        6     0.00000   16.91232   23.70196    0.35541
     711       29        6     0.00000   15.48568   23.84313    0.98711
     712       30        5     0.00000    4.15533   17.17993    8.93053
     713       30        6     0.00000    3.48499   16.50565    9.20655
     714       30        6     0.00000    4.60170   16.77615    8.14478
     715       31        5     0.00000   13.92602   24.99769   14.49278
     716       31        6     0.00000   12.94390   25.08391   14.58505
     717       31        6     0.00000   14.25356   24.88334   15.41996
     718       32        5     0.00000   11.36794   16.79613   13.42628
     719       32        6     0.00000   12.19706   16.27747   13.27013
     720       32        6     0.00000   10.94339   16.35791   14.20624
     721       33        5     0.00000    1.63379   13.62528   20.38574
     722       33        6     0.00000    1.05940   12.90158   20.74220
     723       33        6     0.00000    1.22291   13.86345   19.51666
     724       34        5     0.00000    8.11534    8.39846    4.48288
     725       34        6     0.00000    8.91975    8.84693    4.11905
     726       34        6     0.00000    8.41108    8.01965    5.34854
     727       35        5     0.00000    4.48787   14.32953   13.48937
     728       35        6     0.00000    4.39087   13.38554   13.77171
     729       35        6     0.00000    5.46525   14.46308   13.40210
     730       36        5     0.00000   12.56272    9.87689   15.02906
     731       36        6     0.00000   12.97308   10.69918   14.66102
     732       36        6     0.00000   12.55221    9.24335   14.26802
     733       37        5     0.00000   13.49200   18.34895    1.11198
     734       37        6     0.00000   14.23306   19.00247    1.04731
     735       37        6     0.00000   13.35583   18.22435    2.08463
     736       38        5     0.00000   10.01175   16.30402    3.19924
     737       38        6     0.00000   10.89371   16.60160    2.86091
     738       38        6     0.00000    9.35429   16.80927    2.65771
     739       39        5     0.00000    4.29071    3.62878    3.45449
     740       39        6     0.00000    4.54781    2.82279    2.93951
     741       39        6     0.00000    3.30202    3.59802    3.48630
     742       40        5     0.00000   25.32708   24.67961    5.70526
     743       40        6     0.00000   25.22666   25.57234    6.12193
     744       40        6     0.00000   26.16172   24.31578    6.09459
     745       41        5     0.00000   12.71756   11.18629    5.24391
     746       41        6     0.00000   12.66078   10.49282    4.53939
     747       41        6     0.00000   12.89106   12.02803    4.75206
     748       42        5     0.00000   26.01635   11.44812   23.64597
     749       42        6     0.00000   26.63359   12.16446   23.94065
     750       42        6     0.00000   26.48979   10.60664   23.86573
     751       43        5     0.00000   14.58926   12.21704   12.24911
     752       43        6     0.00000   14.24988   11.51463   11.63976
     753       43        6     0.00000   14.61318   11.78066   13.13712
     754       44        5     0.00000   24.08760   12.82955   10.16895
     755       44        6     0.00000   25.02187   12.66262   10.45181
     756       44        6     0.00000   23.53582   12.37371   10.85296
     757       45        5     0.00000   11.57719   22.24640   24.94722
     758       45        6     0.00000   10.91500   22.95170   25.15805
     759       45        6     0.00000   11.42656   21.55108   25.63570
     760       46        5     0.00000    1.49841    2.36512   24.72824
     761       46        6     0.00000    0.67060    2.78547   25.07314
     762       46        6     0.00000    2.21554    3.01180   24.94748
     763       47        5     0.00000    2.05677   17.12420   12.28907
     764       47        6     0.00000    1.40220   16.40023   12.12319
     765       47        6     0.00000    2.59751   17.16442   11.46074
     766       48        5     0.00000   23.91673    9.18420   13.86082
     767       48        6     0.00000   24.22745    9.92684   13.28380
     768       48        6     0.00000   23.03714    8.92790   13.48517
     769       49        5     0.00000   26.16882    6.67581    0.68480
     770       49        6     0.00000   25.70799    7.34642    1.24973
     771       49        6     0.00000   26.34258    7.14689   -0.16877
     772       50        5     0.00000   16.88735   11.90973    0.55047
     773       50        6     0.00000   16.65706   11.05616    0.10436
     774       50        6     0.00000   16.08031   12.47256    0.44032
     775       51        5     0.00000    0.95977    1.86171    4.77204
     776       51        6     0.00000    1.88905    2.03205    5.06726
     777       51        6     0.00000    0.40247    2.42138    5.36930
     778       52        5     0.00000   13.43391    1.48632   26.22402
     779       52        6     0.00000   13.80535    2.33621   25.88044
     780       52        6     0.00000   13.59584    0.83464   25.49663
     781       53        5     0.00000   25.72166   15.54456   10.21995
     782       53        6     0.00000   24.87493   15.73620   10.69628
     783       53        6     0.00000   26.12728   16.43414   10.06406
     784       54        5     0.00000   14.62580   23.29213   17.59817
     785       54        6     0.00000   13.85031   23.43382   18.19727
     786       54        6     0.00000   14.43837   22.43199   17.14497
     787       55        5     0.00000    4.39981   10.66921   13.12581
     788       55        6     0.00000    3.57410   10.34560   12.68523
     789       55        6     0.00000    5.02835   10.84166   12.38029
     790       56        5     0.00000   16.56585    2.01208   15.95938
     791       56        6     0.00000   16.51143    1.02865   16.06243
     792       56        6     0.00000   17.32977    2.28021   16.52957
     793       57        5     0.00000    0.83701   21.30503    1.83411
     794       57        6     0.00000    0.34306   21.74062    1.09463
     795       57        6     0.00000    0.16430   20.73090    2.27969
     796       58        5     0.00000   24.30027   20.08001    0.46845
     797       58        6     0.00000   25.15962   19.74248    0.11120
     798       58        6     0.00000   24.13071   20.91439   -0.03680
     799       59        5     0.00000   21.73352   24.73665    1.66665
     800       59        6     0.00000   21.63678   25.62098    1.23159
     801       59        6     0.00000   21.10287   24.14938    1.17875
     802       60        5     0.00000   15.02275   22.03794   13.64053
     803       60        6     0.00000   15.13815   21.21276   13.10583
     804       60        6     0.00000   14.58847   21.73484   14.47701
     805       61        5     0.00000   12.50095   13.89473   17.73960
     806       61        6     0.00000   13.48385   13.77328   17.76011
     807       61        6     0.00000   12.31115   14.51197   18.49038
     808       62        5     0.00000    4.10196   11.67577    1.50288
     809       62        6     0.00000    4.32383   11.84322    0.55283
     810       62        6     0.00000    3.13641   11.45574    1.49946
     811       63        5     0.00000   21.25061   14.04457    0.37276
     812       63        6     0.00000   20.33474   14.28669    0.08438
     813       63        6     0.00000   21.25981   13.05431    0.37040
     814       64        5     0.00000   15.26144   16.39603   12.14159
     815       64        6     0.00000   15.73015   17.21700   12.43602
     816       64        6     0.00000   14.59715   16.71306   11.47914
     817       65        5     0.00000   18.57792    1.89404   26.21140
     818       65        6     0.00000   18.14391    2.09777   25.34522
     819       65        6     0.00000   17.87104    1.45083   26.74452
     820       66        5     0.00000    3.28572   24.21799   22.71669
     821       66        6     0.00000    2.76470   23.53766   23.21327
     822       66        6     0.00000    4.20738   24.13045   23.06790
     823       67        5     0.00000   10.80590   25.62045   11.79854
     824       67        6     0.00000   10.61006   26.58259   11.66972
     825       67        6     0.00000   10.73361   25.22876   10.89213
     826       68        5     0.00000   19.37024   12.70967   24.24691
     827       68        6     0.00000   19.87523   12.04590   24.78029
     828       68        6     0.00000   18.67151   12.17813   23.78924
     829       69        5     0.00000    1.73816   10.40291    9.27963
     830       69        6     0.00000    1.22712   10.22967   10.11006
     831       69        6     0.00000    1.15667   11.00674    8.75256
     832       70        5     0.00000    1.97974    9.30697   15.26722
     833       70        6     0.00000    1.90798    8.68526   16.03483
     834       70        6     0.00000    1.43874    8.88373   14.55430
     835       71        5     0.00000   23.06605   23.13309   14.03616
     836       71        6     0.00000   22.57999   23.76820   14.62028
     837       71        6     0.00000   22.37731   22.79818   13.40919
     838       72        5     0.00000   15.90655    3.62642   25.27135
     839       72        6     0.00000   15.67758    3.20923   24.40201
     840       72        6     0.00000   15.36528    4.45448   25.29921
     841       73        5     0.00000   11.03435    0.22292    4.22525
     842       73        6     0.00000   10.39450   -0.46083    4.54649
     843       73        6     0.00000   10.47363    0.87486    3.73498
     844       74        5     0.00000   18.07977   13.09742   13.82428
     845       74        6     0.00000   19.01456   12.84926   14.03695
     846       74        6     0.00000   17.59449   12.23465   13.79458
     847       75        5     0.00000   14.10451   23.48903   11.10375
     848       75        6     0.00000   13.13948   23.60285   10.91368
     849       75        6     0.00000   14.32638   24.23455   11.71625
     850       76        5     0.00000   24.52240   25.47455   16.90627
     851       76        6     0.00000   24.16173   26.29789   17.32189
     852       76        6     0.00000   25.28239   25.21719   17.48645
     853       77        5     0.00000   10.63319    8.73836   22.82289
     854       77        6     0.00000   10.01569    8.12217   22.35470
     855       77        6     0.00000   11.28592    8.14531   23.27294
     856       78        5     0.00000    1.75577    2.66402    1.55861
     857       78        6     0.00000    1.47370    3.55412    1.22791
     858       78        6     0.00000    0.99105    2.06833    1.35856
     859       79        5     0.00000   10.42894    2.82095   25.29658
     860       79        6     0.00000   10.96048    2.07674   24.91672
     861       79        6     0.00000   10.18104    2.51312   26.20457
     862       80        5     0.00000   13.21808   11.08298   19.87996
     863       80        6     0.00000   13.49568   12.01541   20.06266
     864       80        6     0.00000   12.24674   11.07167   20.07107
     865       81        5     0.00000    8.02754   11.19812    0.35489
     866       81        6     0.00000    8.74178   10.69891    0.82570
     867       81        6     0.00000    7.42870   11.51515    1.07702
     868       82        5     0.00000   20.76639   18.65994   18.11420
     869       82        6     0.00000   20.97617   19.24958   18.88128
     870       82        6     0.00000   21.58000   18.10763   18.00038
     871       83        5     0.00000   24.85311   15.31007    2.28126
     872       83        6     0.00000   24.94406   16.15707    1.77680
     873       83        6     0.00000   24.81630   15.58767    3.23078
     874       84        5     0.00000    4.68582   26.21745   10.71153
     875       84        6     0.00000    5.65978   26.05814   10.79381
     876       84        6     0.00000    4.26863   25.42618   11.13582
     877       85        5     0.00000   14.67522   25.11178   22.14624
     878       85        6     0.00000   14.12423   25.92776   22.25060
     879       85        6     0.00000   14.52512   24.60074   22.98088
     880       86        5     0.00000   10.34692   13.81403   21.60892
     881       86        6     0.00000   10.53908   13.84295   22.57973
     882       86        6     0.00000   10.98177   13.14526   21.24851
     883       87        5     0.00000   21.10077    5.70237    4.84460
     884       87        6     0.00000   20.25772    5.44580    5.29491
     885       87        6     0.00000   21.20803    5.03939    4.11695
     886       88        5     0.00000   14.42286   11.04460    2.49525
     887       88        6     0.00000   14.43521   12.02172    2.33673
     888       88        6     0.00000   15.27064   10.85638    2.97106
     889       89        5     0.00000    5.90978    4.72972   20.42833
     890       89        6     0.00000    5.16662    5.10721   19.89521
     891       89        6     0.00000    5.69343    3.76732   20.50588
     892       90        5     0.00000   21.16123   10.98019   12.16657
     893       90        6     0.00000   21.79845   11.31773   12.84532
     894       90        6     0.00000   21.59551   10.16921   11.80038
     895       91        5     0.00000   21.69146   25.67408   24.23771
     896       91        6     0.00000   22.41753   26.32838   24.07788
     897       91        6     0.00000   21.69015   25.10284   23.42883
     898       92        5     0.00000   14.27459   25.57708    5.60852
     899       92        6     0.00000   14.15656   25.73480    4.63824
     900       92        6     0.00000   13.73516   24.76820    5.79569
     901       93        5     0.00000   16.03115   17.08135   26.12754
     902       93        6     0.00000   16.51853   16.44019   25.55184
     903       93        6     0.00000   15.82479   17.84370   25.53002
     904       94        5     0.00000   13.83558    2.54519    3.21554
     905       94        6     0.00000   13.99436    2.34777    4.17268
     906       94        6     0.00000   13.83926    3.53388    3.16112
     907       95        5     0.00000   17.44859   23.63834   16.69098
     908       95        6     0.00000   17.58398   24.61520   16.60265
     909       95        6     0.00000   17.61342   23.28214   15.78220
     910       96        5     0.00000    6.68843   18.42519    6.10642
     911       96        6     0.00000    6.89085   17.46384    5.98470
     912       96        6     0.00000    5.77256   18.44122    6.48260
     913      444        1     0.00000    8.28831    6.35747   51.22381
     914      444        1     0.00000    8.26360   19.55636   38.10825
     915      444        1     0.00000   21.44146    6.44527   38.11193
     916      444        1     0.00000   21.41255   19.55977   51.27481
     917      444        1     0.00000   18.02824   19.86971   51.27061
     918      444        1     0.00000   18.00695    6.68764   38.10195
     919      444        1     0.00000    4.87877   19.84947   38.10326
     920      444        1     0.00000    4.88981    6.69053   51.22302
     921      444        1     0.00000   18.02377    6.43659   27.59730
     922      444        1     0.00000   17.99039   19.54795   40.75019
     923      444        1     0.00000    4.88929    6.40768   40.76360
     924      444        1     0.00000    4.87325   19.56083   27.60992
     925      444        1     0.00000    8.28016   19.84973   27.61202
     926      444        1     0.00000    8.26124    6.72366   40.77648
     927      444        1     0.00000   21.38862   19.81450   40.78515
     928      444        1     0.00000   21.45224    6.72944   27.60729
     929      444        1     0.00000   24.97245    8.29594   32.71871
     930      444        1     0.00000   24.96483   21.40887   45.85661
     931      444        1     0.00000   11.80274    8.26124   45.93337
     932      444        1     0.00000   11.80590   21.42622   32.72134
     933      444        1     0.00000   24.96483   18.01562   46.16865
     934      444        1     0.00000   24.95668    4.86799   32.98553
     935      444        1     0.00000   11.81273   18.01589   32.99447
     936      444        1     0.00000   11.83455    4.75390   46.08374
     937      444        1     0.00000    1.31702   18.01773   32.71003
     938      444        1     0.00000    1.32070    4.82278   45.86949
     939      444        1     0.00000   14.46360   18.00327   45.87449
     940      444        1     0.00000   14.47333    4.87903   32.71135
     941      444        1     0.00000    1.33937    8.27543   46.11476
     942      444        1     0.00000    1.32202   21.43621   33.00682
     943      444        1     0.00000   14.47175    8.29226   32.99762
     944      444        1     0.00000   14.46071   21.40256   46.15787
     945      444        1     0.00000    6.44553   24.96588   34.58752
     946      444        1     0.00000    6.42660   11.83823   47.70255
     947      444        1     0.00000   19.57660   24.96352   47.71306
     948      444        1     0.00000   19.58580   11.82035   34.56754
     949      444        1     0.00000   19.85341   24.94932   44.31614
     950      444        1     0.00000   19.85998   11.81720   31.16720
     951      444        1     0.00000    6.68054   24.96562   31.13539
     952      444        1     0.00000    6.70999   11.83324   44.29879
     953      444        1     0.00000    6.38954    1.26077   44.25384
     954      444        1     0.00000    6.41057   14.44546   31.16141
     955      444        1     0.00000   19.58922    1.32149   31.14354
     956      444        1     0.00000   19.55741   14.44783   44.30484
     957      444        1     0.00000   19.84579    1.32176   34.57726
     958      444        1     0.00000   19.84290   14.46492   47.70229
     959      444        1     0.00000    6.69789    1.27943   47.64288
     960      444        1     0.00000    6.71630   14.45545   34.54808
     961      444        1     0.00000    6.43475    8.23495   27.56891
     962      444        1     0.00000    6.40400   21.37785   40.74414
     963      444        1     0.00000   19.59290    8.29278   40.74993
     964      444        1     0.00000   19.56845   21.41307   27.63121
     965      444        1     0.00000   19.86708   18.02114   27.61833
     966      444        1     0.00000   19.84106    4.85669   40.75597
     967      444        1     0.00000    6.73391   18.01299   40.74572
     968      444        1     0.00000    6.72839    4.84197   27.60282
     969      444        1     0.00000    6.42976   18.00143   51.25404
     970      444        1     0.00000    6.41451    4.88298   38.11851
     971      444        1     0.00000   19.56976   18.00169   38.09774
     972      444        1     0.00000   19.63075    4.89612   51.22434
     973      444        1     0.00000   19.87786    8.29094   51.26482
     974      444        1     0.00000   19.85867   21.41176   38.13954
     975      444        1     0.00000    6.74022    8.25966   38.12508
     976      444        1     0.00000    6.70736   21.40650   51.25772
     977      444        1     0.00000    8.25677   24.92803   46.12606
     978      444        1     0.00000    8.26045   11.81773   33.01839
     979      444        1     0.00000   21.42569   24.95431   33.00209
     980      444        1     0.00000   21.41333   11.81063   46.13001
     981      444        1     0.00000   18.00301   24.96693   32.73054
     982      444        1     0.00000   17.97751   11.81273   45.86397
     983      444        1     0.00000    4.87273   24.92330   45.82770
     984      444        1     0.00000    4.88902   11.79485   32.69558
     985      444        1     0.00000   18.00905    1.32254   46.14736
     986      444        1     0.00000   18.00458   14.45598   33.01261
     987      444        1     0.00000    4.84512    1.33122   32.98211
     988      444        1     0.00000    4.86011   14.47859   46.14236
     989      444        1     0.00000    8.29436    1.32123   32.75157
     990      444        1     0.00000    8.26176   14.47123   45.85425
     991      444        1     0.00000   21.43305    1.31334   45.86687
     992      444        1     0.00000   21.42096   14.46571   32.72922
     993      444        1     0.00000   24.96798    6.44527   44.27960
     994      444        1     0.00000   24.95589   19.58633   31.15878
     995      444        1     0.00000   11.82456    6.44658   31.14985
     996      444        1     0.00000   11.82403   19.56740   44.30826
     997      444        1     0.00000   24.97456   19.85657   34.55544
     998      444        1     0.00000   24.98218    6.69527   47.72174
     999      444        1     0.00000   11.81694   19.85183   47.72200
    1000      444        1     0.00000   11.83218    6.71919   34.55098
    1001      444        1     0.00000    1.31334    6.44632   34.57017
    1002      444        1     0.00000    1.32386   19.57108   47.70360
    1003      444        1     0.00000   14.48595    6.47050   47.72463
    1004      444        1     0.00000   14.45756   19.57975   34.56281
    1005      444        1     0.00000    1.30309   19.84290   44.30694
    1006      444        1     0.00000    1.32176    6.70052   31.14538
    1007      444        1     0.00000   14.45151   19.86235   31.15142
    1008      444        1     0.00000   14.45282    6.65399   44.22781
    1009      444        1     0.00000   18.00563   19.85394   27.61833
    1010      444        1     0.00000   18.03087    6.72628   40.74020
    1011      444        1     0.00000    4.84276   19.81030   40.74125
    1012      444        1     0.00000    4.88824    6.65846   27.60440
    1013      444        1     0.00000    8.29751    6.40163   27.58258
    1014      444        1     0.00000    8.29120   19.58317   40.74756
    1015      444        1     0.00000   21.40492    6.42029   40.75597
    1016      444        1     0.00000   21.43305   19.58081   27.62175
    1017      444        1     0.00000    8.27491   19.84605   51.24800
    1018      444        1     0.00000    8.30435    6.69527   38.12403
    1019      444        1     0.00000   21.42884   19.85078   38.13007
    1020      444        1     0.00000   21.44435    6.72997   51.26298
    1021      444        1     0.00000   18.05190    6.44632   51.24721
    1022      444        1     0.00000   18.01668   19.57318   38.10747
    1023      444        1     0.00000    4.85932    6.45289   38.11325
    1024      444        1     0.00000    4.86720   19.56556   51.25956
    1025      444        1     0.00000    1.31361   18.00195   46.14631
    1026      444        1     0.00000    1.30940    4.87798   33.01103
    1027      444        1     0.00000   14.45650   18.01904   32.99789
    1028      444        1     0.00000   14.48674    4.89638   46.17207
    1029      444        1     0.00000    1.32806    8.27044   32.70267
    1030      444        1     0.00000    1.31624   21.41360   45.86397
    1031      444        1     0.00000   14.44836    8.19998   45.80877
    1032      444        1     0.00000   14.45204   21.42516   32.71608
    1033      444        1     0.00000   24.97272    8.24835   46.14788
    1034      444        1     0.00000   24.96246   21.43857   33.01655
    1035      444        1     0.00000   11.82377    8.28884   32.99762
    1036      444        1     0.00000   11.82114   21.40781   46.15051
    1037      444        1     0.00000   24.97640   18.01168   32.72134
    1038      444        1     0.00000   24.96404    4.88271   45.84505
    1039      444        1     0.00000   11.81431   18.00590   45.87265
    1040      444        1     0.00000   11.83876    4.87877   32.70951
    1041      444        1     0.00000   19.86261    1.32254   44.30826
    1042      444        1     0.00000   19.85604   14.46492   31.16063
    1043      444        1     0.00000    6.73838    1.32307   31.18087
    1044      444        1     0.00000    6.70341   14.47754   44.28591
    1045      444        1     0.00000    6.41504    1.33148   34.53547
    1046      444        1     0.00000    6.43002   14.47149   47.70202
    1047      444        1     0.00000   19.59369    1.34463   47.68494
    1048      444        1     0.00000   19.57502   14.46229   34.56123
    1049      444        1     0.00000   19.86261   24.96404   34.56517
    1050      444        1     0.00000   19.85919   11.80590   47.70360
    1051      444        1     0.00000    6.69132   24.94433   47.68862
    1052      444        1     0.00000    6.69527   11.80984   34.58016
    1053      444        1     0.00000    6.42450   24.91488   44.25331
    1054      444        1     0.00000    6.45473   11.80248   31.13407
    1055      444        1     0.00000   19.56556   24.95957   31.16720
    1056      444        1     0.00000   19.54847   11.80984   44.31036
    1057      444        1     0.00000   19.84237   18.00642   51.26482
    1058      444        1     0.00000   19.87996    4.87877   38.11535
    1059      444        1     0.00000    6.70447   17.98723   38.10063
    1060      444        1     0.00000    6.73943    4.78361   51.25142
    1061      444        1     0.00000    6.47182    8.23731   51.21330
    1062      444        1     0.00000    6.44159   21.41491   38.11246
    1063      444        1     0.00000   19.56582    8.25571   38.10773
    1064      444        1     0.00000   19.59316   21.43279   51.25956
    1065      444        1     0.00000   19.86708    8.27280   27.61675
    1066      444        1     0.00000   19.82712   21.37811   40.78436
    1067      444        1     0.00000    6.70447    8.29120   40.76885
    1068      444        1     0.00000    6.70762   21.40571   27.60361
    1069      444        1     0.00000    6.43344   17.99354   27.61044
    1070      444        1     0.00000    6.45289    4.84302   40.76649
    1071      444        1     0.00000   19.55425   17.98013   40.75071
    1072      444        1     0.00000   19.58396    4.87036   27.60098
    1073      444        1     0.00000   18.02719    1.32281   32.70872
    1074      444        1     0.00000   17.99827   14.45861   45.87607
    1075      444        1     0.00000    4.83356    1.25814   45.82480
    1076      444        1     0.00000    4.84512   14.44231   32.72318
    1077      444        1     0.00000    8.25861    1.28416   46.08006
    1078      444        1     0.00000    8.27780   14.46150   32.98264
    1079      444        1     0.00000   21.41281    1.31545   33.01865
    1080      444        1     0.00000   21.40624   14.45256   46.13973
    1081      444        1     0.00000    8.24967   24.97377   32.68822
    1082      444        1     0.00000    8.26938   11.84086   45.86871
    1083      444        1     0.00000   21.43384   24.97272   45.85661
    1084      444        1     0.00000   21.42648   11.82929   32.72081
    1085      444        1     0.00000   18.00695   24.97114   46.15393
    1086      444        1     0.00000   18.01299   11.81089   33.00735
    1087      444        1     0.00000    4.88193   24.97009   33.02549
    1088      444        1     0.00000    4.85879   11.83140   46.14263
    1089      444        1     0.00000    1.32912   19.85026   34.55728
    1090      444        1     0.00000    1.33648    6.71498   47.68099
    1091      444        1     0.00000   14.46465   19.84999   47.72857
    1092      444        1     0.00000   14.47123    6.71367   34.54835
    1093      444        1     0.00000    1.30756    6.37797   44.29853
    1094      444        1     0.00000    1.32675   19.58922   31.16010
    1095      444        1     0.00000   14.47780    6.44185   31.15064
    1096      444        1     0.00000   14.45966   19.56582   44.30983
    1097      444        1     0.00000   24.95274   19.83028   44.30852
    1098      444        1     0.00000   24.96851    6.72891   31.15800
    1099      444        1     0.00000   11.80879   19.86393   31.15616
    1100      444        1     0.00000   11.80300    6.72155   44.34821
    1101      444        1     0.00000   24.95826    6.43423   34.54677
    1102      444        1     0.00000   24.95773   19.58265   47.72963
    1103      444        1     0.00000   11.87004    6.28754   47.67416
    1104      444        1     0.00000   11.81220   19.57634   34.56175
    1105      444        2     0.00000    7.33064    7.26598   26.25373
    1106      444        2     0.00000    7.31277   20.44752   39.42738
    1107      444        2     0.00000   20.47906    7.33196   39.43185
    1108      444        2     0.00000   20.48563   20.48406   26.29815
    1109      444        2     0.00000   18.97776   18.97724   26.29579
    1110      444        2     0.00000   18.97066    5.81883   39.42870
    1111      444        2     0.00000    5.80963   18.93465   39.42449
    1112      444        2     0.00000    5.81068    5.75311   26.25977
    1113      444        2     0.00000   18.99774    7.31934   26.28632
    1114      444        2     0.00000   18.96909   20.43148   39.44683
    1115      444        2     0.00000    5.82671    7.32512   39.44184
    1116      444        2     0.00000    5.83618   20.43832   26.28895
    1117      444        2     0.00000    7.35457   18.93097   26.29289
    1118      444        2     0.00000    7.33827    5.80384   39.44894
    1119      444        2     0.00000   20.48958   18.91309   39.44263
    1120      444        2     0.00000   20.51639    5.80963   26.29184
    1121      444        2     0.00000   -0.00131    7.33669   33.60987
    1122      444        2     0.00000   -0.00657   20.48248   46.78063
    1123      444        2     0.00000   13.14290    7.24757   46.71886
    1124      444        2     0.00000   13.13186   20.47775   33.61618
    1125      444        2     0.00000   -0.01078   18.96435   45.27381
    1126      444        2     0.00000   -0.00499    5.82224   32.10331
    1127      444        2     0.00000   13.13186   18.96987   32.10410
    1128      444        2     0.00000   13.14448    5.75416   45.20678
    1129      444        2     0.00000    0.00447   18.98906   33.58043
    1130      444        2     0.00000    0.00789    5.79701   46.75750
    1131      444        2     0.00000   13.14080   18.92781   46.79903
    1132      444        2     0.00000   13.15420    5.84433   33.58253
    1133      444        2     0.00000    0.00946    7.31540   45.24121
    1134      444        2     0.00000   -0.00131   20.51219   32.08123
    1135      444        2     0.00000   13.15052    7.36482   32.07282
    1136      444        2     0.00000   13.14132   20.44252   45.27460
    1137      444        2     0.00000    7.32328    0.00394   33.61486
    1138      444        2     0.00000    7.29778   13.15525   46.73200
    1139      444        2     0.00000   20.48695   -0.00631   46.77327
    1140      444        2     0.00000   20.45908   13.14526   33.60067
    1141      444        2     0.00000   18.94201   -0.00131   45.22991
    1142      444        2     0.00000   18.94543   13.14342   32.08727
    1143      444        2     0.00000    5.81015    0.00526   32.10594
    1144      444        2     0.00000    5.78202   13.15368   45.21440
    1145      444        2     0.00000    7.34142   -0.05126   45.17155
    1146      444        2     0.00000    7.32302   13.13186   32.10199
    1147      444        2     0.00000   20.48590   -0.00421   32.09227
    1148      444        2     0.00000   20.43516   13.13028   45.26645
    1149      444        2     0.00000   18.97250    0.00053   33.60724
    1150      444        2     0.00000   18.92703   13.12029   46.77722
    1151      444        2     0.00000    5.82645   -0.04259   46.69309
    1152      444        2     0.00000    5.81068   13.12476   33.61329
    1153      444        3     0.00000    8.51123    4.56095   49.63471
    1154      444        3     0.00000    7.82643    5.25521   50.76509
    1155      444        3     0.00000    8.47154   17.80190   36.48839
    1156      444        3     0.00000    7.79121   18.46909   37.62561
    1157      444        3     0.00000   17.81768   21.62548   49.65206
    1158      444        3     0.00000   18.50353   20.95382   50.78533
    1159      444        3     0.00000   17.81242    8.45997   36.49365
    1160      444        3     0.00000   18.48092    7.77859   37.62797
    1161      444        3     0.00000    4.68661    8.46838   49.61894
    1162      444        3     0.00000    5.37351    7.77622   50.74353
    1163      444        3     0.00000   17.81426    4.66821   29.20901
    1164      444        3     0.00000   18.49406    5.34617   28.07469
    1165      444        3     0.00000   17.78797   17.78324   42.36243
    1166      444        3     0.00000   18.46672   18.45936   41.22758
    1167      444        3     0.00000    4.65664    4.62562   42.35506
    1168      444        3     0.00000    5.35931    5.31515   41.23809
    1169      444        3     0.00000    8.47154   21.62022   29.21374
    1170      444        3     0.00000    7.79831   20.93752   28.08310
    1171      444        3     0.00000    8.47469    8.48889   42.39082
    1172      444        3     0.00000    7.79094    7.81382   41.25202
    1173      444        3     0.00000   23.37336    8.50361   30.94401
    1174      444        3     0.00000   24.49796    7.82170   31.62855
    1175      444        3     0.00000   10.19392    8.48284   44.14580
    1176      444        3     0.00000   11.32430    7.80277   44.83638
    1177      444        3     0.00000   23.34208   17.81294   47.91758
    1178      444        3     0.00000   24.48192   18.49301   47.25224
    1179      444        3     0.00000   23.34707    4.66926   34.75550
    1180      444        3     0.00000   24.47982    5.34512   34.07332
    1181      444        3     0.00000   10.20049   17.81110   34.75839
    1182      444        3     0.00000   11.33508   18.48881   34.08358
    1183      444        3     0.00000    2.93215   17.80690   30.95085
    1184      444        3     0.00000    1.79836   18.49459   31.62802
    1185      444        3     0.00000   16.06979   17.79822   44.10531
    1186      444        3     0.00000   14.93836   18.47829   44.78486
    1187      444        3     0.00000   16.09634    4.68056   30.95242
    1188      444        3     0.00000   14.95650    5.35511   31.62724
    1189      444        3     0.00000    2.94451    8.48179   47.89393
    1190      444        3     0.00000    1.81413    7.80304   47.20676
    1191      444        3     0.00000   16.09293    8.46602   34.75576
    1192      444        3     0.00000   14.95308    7.80356   34.07990
    1193      444        3     0.00000    4.67504   23.34891   34.77758
    1194      444        3     0.00000    5.35485   24.48954   34.11249
    1195      444        3     0.00000    4.66952   10.21706   47.90575
    1196      444        3     0.00000    5.33960   11.35611   47.22963
    1197      444        3     0.00000   21.60497   23.32341   44.12214
    1198      444        3     0.00000   20.94541   24.47824   44.78433
    1199      444        3     0.00000   21.63310   10.22021   30.95374
    1200      444        3     0.00000   20.95356   11.34954   31.63433
    1201      444        3     0.00000    8.45866   23.35391   30.93718
    1202      444        3     0.00000    7.77386   24.49191   31.60436
    1203      444        3     0.00000    4.60669    2.85040   44.03986
    1204      444        3     0.00000    5.29491    1.72606   44.72728
    1205      444        3     0.00000    4.64533   16.05586   30.94848
    1206      444        3     0.00000    5.31936   14.91996   31.63276
    1207      444        3     0.00000   21.61654    2.93636   34.77390
    1208      444        3     0.00000   20.93516    1.79836   34.10303
    1209      444        3     0.00000   21.60944   16.08057   47.90260
    1210      444        3     0.00000   20.93227   14.94020   47.22490
    1211      444        3     0.00000    8.47338   16.07610   34.75234
    1212      444        3     0.00000    7.80225   14.93757   34.07254
    1213      444        3     0.00000    4.68608    8.43710   29.20901
    1214      444        3     0.00000    5.35747    7.75572   28.06733
    1215      444        3     0.00000    4.64165   21.58131   42.34928
    1216      444        3     0.00000    5.31541   20.90019   41.21759
    1217      444        3     0.00000   21.62627   17.80716   29.23267
    1218      444        3     0.00000   20.95698   18.48959   28.09572
    1219      444        3     0.00000   21.59577    4.67846   42.38608
    1220      444        3     0.00000   20.92464    5.33776   41.23941
    1221      444        3     0.00000    8.49231    4.65559   29.22400
    1222      444        3     0.00000    7.81881    5.32093   28.07574
    1223      444        3     0.00000    4.66426   17.81032   49.63892
    1224      444        3     0.00000    5.34091   18.47987   50.77771
    1225      444        3     0.00000    4.66452    4.68503   36.49023
    1226      444        3     0.00000    5.33250    5.36273   37.63428
    1227      444        3     0.00000   21.63074    8.47653   49.63708
    1228      444        3     0.00000   20.96355    7.81408   50.78349
    1229      444        3     0.00000   21.62600   21.61917   36.51968
    1230      444        3     0.00000   20.95119   20.94199   37.65952
    1231      444        3     0.00000    8.48994    8.46576   36.50285
    1232      444        3     0.00000    7.82643    7.78358   37.64480
    1233      444        3     0.00000    8.46339   23.33787   47.90418
    1234      444        3     0.00000    7.78122   24.46352   47.22017
    1235      444        3     0.00000    8.47128   10.20155   34.77469
    1236      444        3     0.00000    7.78595   11.33666   34.10461
    1237      444        3     0.00000   17.80164   23.34996   30.96268
    1238      444        3     0.00000   18.47592   24.48639   31.64169
    1239      444        3     0.00000   17.78560   10.19445   44.09401
    1240      444        3     0.00000   18.45673   11.33298   44.77828
    1241      444        3     0.00000    4.69318   10.17552   30.93639
    1242      444        3     0.00000    5.36904   11.31694   31.60936
    1243      444        3     0.00000   17.84528    2.97316   47.88499
    1244      444        3     0.00000   18.50221    1.81860   47.21833
    1245      444        3     0.00000   17.80847   16.07926   34.76338
    1246      444        3     0.00000   18.48565   14.94047   34.09173
    1247      444        3     0.00000    4.66347    2.95423   34.75024
    1248      444        3     0.00000    5.32908    1.81413   34.06491
    1249      444        3     0.00000    8.49783    2.93347   30.97451
    1250      444        3     0.00000    7.82275    1.80046   31.66141
    1251      444        3     0.00000    8.47837   16.08005   44.08875
    1252      444        3     0.00000    7.79331   14.94888   44.76382
    1253      444        3     0.00000   23.34076    4.68503   44.09900
    1254      444        3     0.00000   24.48481    5.36037   44.75988
    1255      444        3     0.00000   10.21916    4.67136   30.95847
    1256      444        3     0.00000   11.35453    5.35432   31.62592
    1257      444        3     0.00000   23.35680   21.61680   34.78468
    1258      444        3     0.00000   24.48981   20.94883   34.09935
    1259      444        3     0.00000   10.19839   21.61128   47.90865
    1260      444        3     0.00000   11.33981   20.93700   47.23936
    1261      444        3     0.00000   10.21101    8.47837   34.76338
    1262      444        3     0.00000   11.34928    7.80751   34.08305
    1263      444        3     0.00000    2.92979    4.68214   34.76627
    1264      444        3     0.00000    1.78968    5.35642   34.09619
    1265      444        3     0.00000   16.12973    4.72210   47.89445
    1266      444        3     0.00000   14.97438    5.38718   47.24751
    1267      444        3     0.00000    2.91848   21.59682   44.08612
    1268      444        3     0.00000    1.78574   20.93069   44.77408
    1269      444        3     0.00000    2.94924    8.45498   30.93902
    1270      444        3     0.00000    1.80598    7.78805   31.61698
    1271      444        3     0.00000   16.06638   21.62364   30.95532
    1272      444        3     0.00000   14.92942   20.94988   31.62802
    1273      444        3     0.00000   17.79927   21.61812   29.23346
    1274      444        3     0.00000   18.47619   20.94120   28.09992
    1275      444        3     0.00000   17.81373    8.47653   42.35322
    1276      444        3     0.00000   18.50274    7.81303   41.22100
    1277      444        3     0.00000    8.49231   17.81294   42.35927
    1278      444        3     0.00000    7.81960   18.49275   41.22495
    1279      444        3     0.00000    8.46602   21.61233   49.63813
    1280      444        3     0.00000    7.79515   20.93595   50.77639
    1281      444        3     0.00000   17.88892    4.73156   49.58608
    1282      444        3     0.00000   18.54664    5.37929   50.74432
    1283      444        3     0.00000   17.81110   17.81873   36.48182
    1284      444        3     0.00000   18.48565   18.48723   37.62035
    1285      444        3     0.00000    2.93688   17.81110   47.90418
    1286      444        3     0.00000    1.79809   18.48171   47.22937
    1287      444        3     0.00000   16.07794   17.81610   34.75760
    1288      444        3     0.00000   14.93731   18.49275   34.08515
    1289      444        3     0.00000   16.06690    8.44236   44.06457
    1290      444        3     0.00000   14.92732    7.74258   44.71651
    1291      444        3     0.00000   23.35732    8.45918   47.90418
    1292      444        3     0.00000   24.49769    7.77859   47.23830
    1293      444        3     0.00000   23.35075   17.81110   30.96741
    1294      444        3     0.00000   24.48876   18.49012   31.63749
    1295      444        3     0.00000   10.21443   17.80427   44.09611
    1296      444        3     0.00000   11.34428   18.48039   44.78091
    1297      444        3     0.00000   21.61444    2.94740   44.11557
    1298      444        3     0.00000   20.95093    1.79888   44.78459
    1299      444        3     0.00000   21.62548   16.07216   30.95926
    1300      444        3     0.00000   20.94567   14.94047   31.63906
    1301      444        3     0.00000    4.66794   16.08346   47.90759
    1302      444        3     0.00000    5.34144   14.95151   47.23068
    1303      444        3     0.00000   21.62390   23.34550   34.77915
    1304      444        3     0.00000   20.94935   24.48061   34.09357
    1305      444        3     0.00000   21.62390   10.19050   47.89130
    1306      444        3     0.00000   20.94541   11.32772   47.21780
    1307      444        3     0.00000    4.65559   23.31421   44.07272
    1308      444        3     0.00000    5.33907   24.44275   44.73990
    1309      444        3     0.00000   21.61049   17.80479   49.64891
    1310      444        3     0.00000   20.93227   18.47882   50.78822
    1311      444        3     0.00000   21.63231    4.67294   36.49917
    1312      444        3     0.00000   20.96565    5.35485   37.63612
    1313      444        3     0.00000    4.67767   21.61339   36.49786
    1314      444        3     0.00000    5.35432   20.93910   37.63192
    1315      444        3     0.00000   21.64362    8.50072   29.21322
    1316      444        3     0.00000   20.96565    7.81276   28.08573
    1317      444        3     0.00000   21.56134   21.55135   42.42998
    1318      444        3     0.00000   20.90046   20.89021   41.27647
    1319      444        3     0.00000    4.66768   17.79691   29.22584
    1320      444        3     0.00000    5.34748   18.47382   28.09046
    1321      444        3     0.00000   17.82214    2.94030   30.94506
    1322      444        3     0.00000   18.50116    1.80125   31.62014
    1323      444        3     0.00000   17.79481   16.06164   44.10190
    1324      444        3     0.00000   18.47224   14.92916   44.78091
    1325      444        3     0.00000    8.46865    2.86932   47.86475
    1326      444        3     0.00000    7.78464    1.75445   47.17259
    1327      444        3     0.00000    8.47680   10.22363   44.11557
    1328      444        3     0.00000    7.79804   11.36058   44.78144
    1329      444        3     0.00000   17.81242   23.34891   47.91338
    1330      444        3     0.00000   18.48670   24.48876   47.23830
    1331      444        3     0.00000   17.83135   10.18919   34.76338
    1332      444        3     0.00000   18.49880   11.33429   34.09409
    1333      444        3     0.00000    2.94188   21.61917   34.77206
    1334      444        3     0.00000    1.80440   20.94541   34.09094
    1335      444        3     0.00000   16.08557   21.61260   47.91653
    1336      444        3     0.00000   14.94336   20.93437   47.24619
    1337      444        3     0.00000    2.89325    4.59644   44.06036
    1338      444        3     0.00000    1.78022    5.28545   44.76672
    1339      444        3     0.00000   23.33051   21.58841   44.11662
    1340      444        3     0.00000   24.47772   20.92175   44.77881
    1341      444        3     0.00000   10.19471   21.62653   30.95190
    1342      444        3     0.00000   11.32930   20.95146   31.63170
    1343      444        3     0.00000   10.25544    4.53282   47.90102
    1344      444        3     0.00000   11.38292    5.20737   47.19703
    1345      444        3     0.00000    9.71154    5.06594   49.09160
    1346      444        4     0.00000   10.19629    5.90163   49.57688
    1347      444        3     0.00000    9.62295   18.36841   35.91321
    1348      444        4     0.00000   10.04487   19.27297   36.33671
    1349      444        3     0.00000   16.66889   21.05556   49.07110
    1350      444        4     0.00000   16.25302   20.14836   49.49065
    1351      444        3     0.00000   16.65996    7.90503   35.90927
    1352      444        4     0.00000   16.23409    7.00205   36.33172
    1353      444        3     0.00000    3.52626   21.04872   35.91716
    1354      444        4     0.00000    3.10644   20.13916   36.33251
    1355      444        3     0.00000   16.66837    5.23734   29.79392
    1356      444        4     0.00000   16.24855    6.14348   29.37200
    1357      444        3     0.00000   16.64208   18.35369   42.94733
    1358      444        4     0.00000   16.22305   19.25983   42.52699
    1359      444        3     0.00000    3.52153   18.36762   29.80680
    1360      444        4     0.00000    3.11144   19.27876   29.39224
    1361      444        3     0.00000    9.62163   21.06187   29.79839
    1362      444        4     0.00000   10.04513   20.15756   29.38146
    1363      444        3     0.00000    9.62295    7.92317   42.98282
    1364      444        4     0.00000   10.04776    7.02018   42.56037
    1365      444        3     0.00000   22.78688    9.64582   31.51420
    1366      444        4     0.00000   23.20065   10.06012   32.42691
    1367      444        3     0.00000   22.77294   22.75875   44.66446
    1368      444        4     0.00000   23.22457   23.20591   45.54221
    1369      444        3     0.00000    9.61664    9.63793   44.69653
    1370      444        4     0.00000   10.02515   10.05170   45.61030
    1371      444        3     0.00000   22.76059   16.66600   47.34319
    1372      444        4     0.00000   23.18304   16.25433   46.43442
    1373      444        3     0.00000   22.76558    3.51390   34.20187
    1374      444        4     0.00000   23.18146    3.09014   33.29599
    1375      444        3     0.00000    9.63215    3.42505   47.31007
    1376      444        4     0.00000   10.02699    3.02258   46.38631
    1377      444        3     0.00000    3.49445   16.64129   31.50684
    1378      444        4     0.00000    3.06596   16.21122   32.40431
    1379      444        3     0.00000    3.43925    3.41217   44.58507
    1380      444        4     0.00000    2.99472    2.96317   45.46229
    1381      444        3     0.00000    3.51916    9.63846   47.34004
    1382      444        4     0.00000    3.09777   10.06117   46.43574
    1383      444        3     0.00000    3.52389   22.77058   34.21081
    1384      444        4     0.00000    3.10565   23.19092   33.30467
    1385      444        3     0.00000    5.23786   22.76611   35.92478
    1386      444        4     0.00000    6.14033   23.18803   36.34828
    1387      444        3     0.00000   18.37498   22.77689   49.06926
    1388      444        4     0.00000   19.27849   23.20223   49.48907
    1389      444        3     0.00000   18.38339    9.61138   35.91900
    1390      444        4     0.00000   19.28401   10.03514   36.34460
    1391      444        3     0.00000   21.00876   22.71143   43.00438
    1392      444        4     0.00000   20.10183   23.13046   42.58955
    1393      444        3     0.00000   21.07238    9.64398   29.79944
    1394      444        4     0.00000   20.16387   10.06169   29.38304
    1395      444        3     0.00000    7.90582   22.77294   29.78445
    1396      444        4     0.00000    7.00231   23.19355   29.35964
    1397      444        3     0.00000    5.19580    3.45528   42.91526
    1398      444        4     0.00000    6.11089    3.04729   42.50412
    1399      444        3     0.00000   18.37498    3.51311   29.78551
    1400      444        4     0.00000   19.27429    3.08646   29.35806
    1401      444        3     0.00000   21.06344    3.51916   35.92767
    1402      444        4     0.00000   20.15914    3.10092   36.35354
    1403      444        3     0.00000    7.91029    3.44766   49.01957
    1404      444        4     0.00000    6.97944    3.06044   49.41415
    1405      444        3     0.00000    5.25495    9.58720   29.78813
    1406      444        4     0.00000    6.16057   10.00439   29.36621
    1407      444        3     0.00000   18.35868    9.63005   42.94050
    1408      444        4     0.00000   19.25957   10.06327   42.52462
    1409      444        3     0.00000   21.06555   16.64944   29.80496
    1410      444        4     0.00000   20.16282   16.22673   29.37831
    1411      444        3     0.00000    7.92317   16.66206   42.93524
    1412      444        4     0.00000    7.01755   16.24592   42.51069
    1413      444        3     0.00000    7.93789    3.50207   29.81074
    1414      444        4     0.00000    7.04069    3.07148   29.38514
    1415      444        3     0.00000    5.22709   16.65891   49.06111
    1416      444        4     0.00000    6.13165   16.23593   49.48303
    1417      444        3     0.00000    5.23077    3.53467   35.90270
    1418      444        4     0.00000    6.13954    3.11774   36.31752
    1419      444        3     0.00000   18.37156   16.66259   35.90953
    1420      444        4     0.00000   19.27560   16.24198   36.33303
    1421      444        3     0.00000   21.06187    9.61664   49.04507
    1422      444        4     0.00000   20.15020   10.03094   49.45621
    1423      444        3     0.00000    7.91660    9.61480   35.92583
    1424      444        4     0.00000    7.00967   10.03067   36.34670
    1425      444        3     0.00000    9.61717   22.76006   47.34267
    1426      444        4     0.00000   10.03830   23.17804   46.43705
    1427      444        3     0.00000    9.62637    9.63110   34.20687
    1428      444        4     0.00000   10.04171   10.05775   33.30020
    1429      444        3     0.00000   16.64813   22.77268   31.52130
    1430      444        4     0.00000   16.22805   23.19066   32.42718
    1431      444        3     0.00000   16.63498    9.59614   44.64553
    1432      444        4     0.00000   16.20702   10.00544   45.55325
    1433      444        3     0.00000    3.53388    9.60665   31.49685
    1434      444        4     0.00000    3.11117   10.03488   32.39800
    1435      444        3     0.00000   16.68440    3.55097   47.34030
    1436      444        4     0.00000   16.23541    3.11301   46.45729
    1437      444        3     0.00000   16.65812   16.66180   34.19714
    1438      444        4     0.00000   16.23909   16.24329   33.29073
    1439      444        3     0.00000    3.51022    3.53415   34.19688
    1440      444        4     0.00000    3.08462    3.11406   33.29441
    1441      444        3     0.00000    9.64871    3.51890   31.52682
    1442      444        4     0.00000   10.07379    3.09908   32.43007
    1443      444        3     0.00000    9.63189   16.65181   44.65289
    1444      444        4     0.00000   10.05144   16.22437   45.55535
    1445      444        3     0.00000   22.75218    5.24391   42.95233
    1446      444        4     0.00000   23.17252    6.14559   42.52304
    1447      444        3     0.00000   22.77505   18.37025   29.81416
    1448      444        4     0.00000   23.19618   19.27429   29.39224
    1449      444        3     0.00000    9.63557    5.22971   29.80548
    1450      444        4     0.00000   10.05013    6.13691   29.38567
    1451      444        3     0.00000   22.77978   21.05635   35.93950
    1452      444        4     0.00000   23.20538   20.15309   36.35932
    1453      444        3     0.00000   22.77952    7.90661   49.05979
    1454      444        4     0.00000   23.19881    7.00257   49.48408
    1455      444        3     0.00000    9.63872    7.90845   35.91479
    1456      444        4     0.00000   10.06511    7.00362   36.32988
    1457      444        3     0.00000    3.51022    5.24417   35.91663
    1458      444        4     0.00000    3.08988    6.14953   36.33855
    1459      444        3     0.00000    3.51522   18.37524   49.05559
    1460      444        4     0.00000    3.09645   19.28139   49.47514
    1461      444        3     0.00000    3.49103   21.02533   42.93419
    1462      444        4     0.00000    3.06832   20.11892   42.51936
    1463      444        3     0.00000    3.52994    7.88322   29.79129
    1464      444        4     0.00000    3.10408    6.97891   29.37463
    1465      444        3     0.00000   16.64550   21.05819   29.80706
    1466      444        4     0.00000   16.22621   20.15441   29.38199
    1467      444        3     0.00000   16.66469    7.89557   42.91841
    1468      444        4     0.00000   16.25933    6.98627   42.49281
    1469      444        3     0.00000    9.64266   18.37077   42.94286
    1470      444        4     0.00000   10.06432   19.27771   42.52699
    1471      444        3     0.00000    9.61454   21.04793   49.05716
    1472      444        4     0.00000   10.03462   20.14310   49.47830
    1473      444        3     0.00000   16.74329    5.30648   49.01142
    1474      444        4     0.00000   16.33846    6.22366   49.42204
    1475      444        3     0.00000   16.65891   18.38050   35.90717
    1476      444        4     0.00000   16.23698   19.28375   36.33224
    1477      444        3     0.00000    3.51864   16.66259   47.34214
    1478      444        4     0.00000    3.10092   16.24303   46.43495
    1479      444        3     0.00000    3.50497   22.74561   44.64185
    1480      444        4     0.00000    3.09172   23.16963   45.54904
    1481      444        3     0.00000   22.77584    9.60718   47.33110
    1482      444        4     0.00000   23.19513   10.02279   46.42285
    1483      444        3     0.00000   22.77505   22.76532   34.21870
    1484      444        4     0.00000   23.18777   23.17962   33.30624
    1485      444        3     0.00000   22.77373   16.65601   31.52524
    1486      444        4     0.00000   23.19381   16.23646   32.42875
    1487      444        3     0.00000   22.76874    3.53125   44.66893
    1488      444        4     0.00000   23.19907    3.11038   45.56955
    1489      444        3     0.00000   21.03505    3.53257   42.97572
    1490      444        4     0.00000   20.12707    3.11144   42.56221
    1491      444        3     0.00000   18.43360    3.56858   49.01484
    1492      444        4     0.00000   19.33948    3.14587   49.43098
    1493      444        3     0.00000   21.06265   22.76926   35.93477
    1494      444        4     0.00000   20.15888   23.19119   36.35590
    1495      444        3     0.00000    7.90372   22.76480   49.05927
    1496      444        4     0.00000    7.00047   23.18777   49.48277
    1497      444        3     0.00000    5.21105   22.73115   42.92157
    1498      444        4     0.00000    6.11641   23.14807   42.49860
    1499      444        3     0.00000   18.36630   22.76795   29.81311
    1500      444        4     0.00000   19.27271   23.18935   29.39119
    1501      444        3     0.00000   21.04925   16.65444   49.06137
    1502      444        4     0.00000   20.14231   16.22936   49.47593
    1503      444        3     0.00000    7.90977   16.65207   35.90507
    1504      444        4     0.00000    7.00441   16.23278   36.32593
    1505      444        3     0.00000    5.24049    9.62952   49.04954
    1506      444        4     0.00000    6.14453   10.05197   49.47015
    1507      444        3     0.00000    7.91976    9.64687   42.96047
    1508      444        4     0.00000    7.02360   10.07536   42.52699
    1509      444        3     0.00000    5.21894   16.63656   29.80075
    1510      444        4     0.00000    6.12429   16.21411   29.38120
    1511      444        3     0.00000   18.34764   16.62999   42.94050
    1512      444        4     0.00000   19.24485   16.20123   42.51200
    1513      444        3     0.00000   16.67731    3.52862   31.51472
    1514      444        4     0.00000   16.26038    3.11380   32.42323
    1515      444        3     0.00000   16.64918   16.64681   44.66840
    1516      444        4     0.00000   16.23173   16.22962   45.57638
    1517      444        3     0.00000    9.62216   16.66048   34.19215
    1518      444        4     0.00000   10.04329   16.24250   33.28705
    1519      444        3     0.00000    9.60875   22.77663   31.51052
    1520      444        4     0.00000   10.01963   23.19408   32.42087
    1521      444        3     0.00000   16.66364   22.76296   47.34898
    1522      444        4     0.00000   16.24250   23.17909   46.44073
    1523      444        3     0.00000   16.68808    9.60665   34.18636
    1524      444        4     0.00000   16.27799   10.01990   33.27365
    1525      444        3     0.00000    3.52547    7.91608   49.04560
    1526      444        4     0.00000    3.09908    7.01545   49.46962
    1527      444        3     0.00000    3.50023    5.18687   42.93235
    1528      444        4     0.00000    3.10171    6.11535   42.53698
    1529      444        3     0.00000   22.72300   20.99983   42.99465
    1530      444        4     0.00000   23.13519   20.08842   42.58114
    1531      444        3     0.00000   22.80528    7.95078   29.78288
    1532      444        4     0.00000   23.23430    7.05436   29.35386
    1533      444        3     0.00000   22.77794    5.23366   35.91032
    1534      444        4     0.00000   23.20144    6.13849   36.32751
    1535      444        3     0.00000   22.76348   18.36762   49.07294
    1536      444        4     0.00000   23.18067   19.27035   49.49854
    1537       97        5     0.00000    9.82484   13.50015   38.44185
    1538       97        6     0.00000    9.24677   14.23095   38.10641
    1539       97        6     0.00000    9.83325   13.62081   39.42475
    1540       98        5     0.00000   15.41890    2.81649   36.34539
    1541       98        6     0.00000   15.35213    2.64377   37.31804
    1542       98        6     0.00000   16.17600    3.44897   36.25653
    1543       99        5     0.00000   24.01768   23.43619   50.53638
    1544       99        6     0.00000   24.59864   22.63967   50.62629
    1545       99        6     0.00000   23.12073   23.06684   50.33739
    1546      100        5     0.00000   11.92866   24.90831   27.92380
    1547      100        6     0.00000   12.07272   24.80710   26.94930
    1548      100        6     0.00000   12.42024   24.14964   28.32837
    1549      101        5     0.00000   22.27400    9.73914   42.93366
    1550      101        6     0.00000   21.82053   10.43472   43.47283
    1551      101        6     0.00000   22.36627    8.96917   43.54906
    1552      102        5     0.00000    0.68375   21.20960   38.52649
    1553      102        6     0.00000    1.46818   21.43568   37.96656
    1554      102        6     0.00000    0.47713   20.26955   38.29490
    1555      103        5     0.00000   13.18654    2.37958   42.60979
    1556      103        6     0.00000   13.37791    1.68584   41.92973
    1557      103        6     0.00000   13.64132    3.19161   42.27147
    1558      104        5     0.00000    5.12246    0.89773   50.11341
    1559      104        6     0.00000    5.85300    1.13800   50.73722
    1560      104        6     0.00000    4.87115    1.75288   49.68177
    1561      105        5     0.00000    2.61538   16.23041   26.57155
    1562      105        6     0.00000    3.54597   16.56401   26.51608
    1563      105        6     0.00000    2.06255   17.04849   26.64910
    1564      106        5     0.00000   14.62816   11.85768   34.94556
    1565      106        6     0.00000   15.37842   11.83166   35.59145
    1566      106        6     0.00000   13.81429   11.85216   35.50864
    1567      107        5     0.00000   22.47326   16.18967   41.96075
    1568      107        6     0.00000   21.69830   16.66574   42.35007
    1569      107        6     0.00000   22.24535   16.09214   41.00203
    1570      108        5     0.00000   11.03067   25.82076   33.66323
    1571      108        6     0.00000   11.66946   26.55867   33.49736
    1572      108        6     0.00000   11.45364   25.02924   33.24526
    1573      109        5     0.00000   13.90157   15.67968   50.19359
    1574      109        6     0.00000   13.37712   15.78063   49.35974
    1575      109        6     0.00000   13.88790   16.58030   50.60447
    1576      110        5     0.00000   24.27872   14.54799   51.62628
    1577      110        6     0.00000   23.71195   15.35844   51.67833
    1578      110        6     0.00000   24.37414   14.37317   50.65626
    1579      111        5     0.00000    0.29837   26.32759   37.27282
    1580      111        6     0.00000   -0.61067   26.17118   36.91294
    1581      111        6     0.00000    0.78680   25.48717   37.08513
    1582      112        5     0.00000    1.31255   25.65568   42.04723
    1583      112        6     0.00000    1.78784   24.86625   42.40974
    1584      112        6     0.00000    1.54152   25.66409   41.08404
    1585      113        5     0.00000   26.18249    0.84095   45.84846
    1586      113        6     0.00000   25.98585    1.73132   45.46203
    1587      113        6     0.00000   26.55656    1.03574   46.74462
    1588      114        5     0.00000   25.03528   18.02062   38.64716
    1589      114        6     0.00000   24.22377   17.68571   39.10457
    1590      114        6     0.00000   24.69774   18.43676   37.81436
    1591      115        5     0.00000   14.43758   16.09950   30.64275
    1592      115        6     0.00000   15.11370   16.64708   30.16983
    1593      115        6     0.00000   14.60161   15.17495   30.32888
    1594      116        5     0.00000   23.18067    1.77680   40.91580
    1595      116        6     0.00000   23.14860    1.55335   41.87952
    1596      116        6     0.00000   22.51979    2.50313   40.80040
    1597      117        5     0.00000   13.08769    7.79778   52.26061
    1598      117        6     0.00000   12.35689    7.53832   51.64521
    1599      117        6     0.00000   12.88133    8.73337   52.51087
    1600      118        5     0.00000    9.93078    3.59829   35.45239
    1601      118        6     0.00000    9.01990    3.77231   35.79939
    1602      118        6     0.00000   10.44445    4.41269   35.68346
    1603      119        5     0.00000    7.92081    1.20845   40.22706
    1604      119        6     0.00000    8.31276    2.10829   40.35850
    1605      119        6     0.00000    8.65555    0.58333   40.44998
    1606      120        5     0.00000   24.64280   12.30537   29.15276
    1607      120        6     0.00000   24.87598   12.23833   30.11253
    1608      120        6     0.00000   23.68435   12.55484   29.14697
    1609      121        5     0.00000   19.14548   26.29710   38.30331
    1610      121        6     0.00000   19.37523   25.37203   38.03412
    1611      121        6     0.00000   18.18834   26.25241   38.55383
    1612      122        5     0.00000    0.58491    7.93816   38.26072
    1613      122        6     0.00000    0.37723    7.81119   37.30095
    1614      122        6     0.00000    1.55992    8.11008   38.28359
    1615      123        5     0.00000    8.64267   23.87677   39.41949
    1616      123        6     0.00000    8.78620   24.04712   40.38426
    1617      123        6     0.00000    8.22128   24.70642   39.08064
    1618      124        5     0.00000   16.89313   13.12791   30.44402
    1619      124        6     0.00000   16.34214   13.03722   29.62962
    1620      124        6     0.00000   17.26405   14.04326   30.38303
    1621      125        5     0.00000   15.99750   24.02714   26.44720
    1622      125        6     0.00000   16.91232   23.70196   26.64331
    1623      125        6     0.00000   15.48568   23.84313   27.27501
    1624      126        5     0.00000    4.15533   17.17993   35.21843
    1625      126        6     0.00000    3.48499   16.50565   35.49445
    1626      126        6     0.00000    4.60170   16.77615   34.43268
    1627      127        5     0.00000   13.92602   24.99769   40.78068
    1628      127        6     0.00000   12.94390   25.08391   40.87295
    1629      127        6     0.00000   14.25356   24.88334   41.70786
    1630      128        5     0.00000   11.36794   16.79613   39.71418
    1631      128        6     0.00000   12.19706   16.27747   39.55803
    1632      128        6     0.00000   10.94339   16.35791   40.49414
    1633      129        5     0.00000    1.63379   13.62528   46.67364
    1634      129        6     0.00000    1.05940   12.90158   47.03010
    1635      129        6     0.00000    1.22291   13.86345   45.80456
    1636      130        5     0.00000    8.11534    8.39846   30.77078
    1637      130        6     0.00000    8.91975    8.84693   30.40695
    1638      130        6     0.00000    8.41108    8.01965   31.63644
    1639      131        5     0.00000    4.48787   14.32953   39.77727
    1640      131        6     0.00000    4.39087   13.38554   40.05961
    1641      131        6     0.00000    5.46525   14.46308   39.69000
    1642      132        5     0.00000   12.56272    9.87689   41.31696
    1643      132        6     0.00000   12.97308   10.69918   40.94892
    1644      132        6     0.00000   12.55221    9.24335   40.55592
    1645      133        5     0.00000   13.49200   18.34895   27.39988
    1646      133        6     0.00000   14.23306   19.00247   27.33521
    1647      133        6     0.00000   13.35583   18.22435   28.37253
    1648      134        5     0.00000   10.01175   16.30402   29.48714
    1649      134        6     0.00000   10.89371   16.60160   29.14881
    1650      134        6     0.00000    9.35429   16.80927   28.94561
    1651      135        5     0.00000    4.29071    3.62878   29.74239
    1652      135        6     0.00000    4.54781    2.82279   29.22741
    1653      135        6     0.00000    3.30202    3.59802   29.77420
    1654      136        5     0.00000   25.32708   24.67961   31.99316
    1655      136        6     0.00000   25.22666   25.57234   32.40983
    1656      136        6     0.00000   26.16172   24.31578   32.38249
    1657      137        5     0.00000   12.71756   11.18629   31.53181
    1658      137        6     0.00000   12.66078   10.49282   30.82729
    1659      137        6     0.00000   12.89106   12.02803   31.03996
    1660      138        5     0.00000   26.01635   11.44812   49.93387
    1661      138        6     0.00000   26.63359   12.16446   50.22855
    1662      138        6     0.00000   26.48979   10.60664   50.15363
    1663      139        5     0.00000   14.58926   12.21704   38.53701
    1664      139        6     0.00000   14.24988   11.51463   37.92766
    1665      139        6     0.00000   14.61318   11.78066   39.42502
    1666      140        5     0.00000   24.08760   12.82955   36.45685
    1667      140        6     0.00000   25.02187   12.66262   36.73971
    1668      140        6     0.00000   23.53582   12.37371   37.14086
    1669      141        5     0.00000   11.57719   22.24640   51.23512
    1670      141        6     0.00000   10.91500   22.95170   51.44595
    1671      141        6     0.00000   11.42656   21.55108   51.92360
    1672      142        5     0.00000    1.49841    2.36512   51.01614
    1673      142        6     0.00000    0.67060    2.78547   51.36104
    1674      142        6     0.00000    2.21554    3.01180   51.23538
    1675      143        5     0.00000    2.05677   17.12420   38.57697
    1676      143        6     0.00000    1.40220   16.40023   38.41109
    1677      143        6     0.00000    2.59751   17.16442   37.74864
    1678      144        5     0.00000   23.91673    9.18420   40.14872
    1679      144        6     0.00000   24.22745    9.92684   39.57170
    1680      144        6     0.00000   23.03714    8.92790   39.77307
    1681      145        5     0.00000   26.16882    6.67581   26.97270
    1682      145        6     0.00000   25.70799    7.34642   27.53763
    1683      145        6     0.00000   26.34258    7.14689   26.11913
    1684      146        5     0.00000   16.88735   11.90973   26.83837
    1685      146        6     0.00000   16.65706   11.05616   26.39226
    1686      146        6     0.00000   16.08031   12.47256   26.72822
    1687      147        5     0.00000    0.95977    1.86171   31.05994
    1688      147        6     0.00000    1.88905    2.03205   31.35516
    1689      147        6     0.00000    0.40247    2.42138   31.65720
    1690      148        5     0.00000   13.43391    1.48632   52.51192
    1691      148        6     0.00000   13.80535    2.33621   52.16834
    1692      148        6     0.00000   13.59584    0.83464   51.78453
    1693      149        5     0.00000   25.72166   15.54456   36.50785
    1694      149        6     0.00000   24.87493   15.73620   36.98418
    1695      149        6     0.00000   26.12728   16.43414   36.35196
    1696      150        5     0.00000   14.62580   23.29213   43.88607
    1697      150        6     0.00000   13.85031   23.43382   44.48517
    1698      150        6     0.00000   14.43837   22.43199   43.43287
    1699      151        5     0.00000    4.39981   10.66921   39.41371
    1700      151        6     0.00000    3.57410   10.34560   38.97313
    1701      151        6     0.00000    5.02835   10.84166   38.66819
    1702      152        5     0.00000   16.56585    2.01208   42.24728
    1703      152        6     0.00000   16.51143    1.02865   42.35033
    1704      152        6     0.00000   17.32977    2.28021   42.81747
    1705      153        5     0.00000    0.83701   21.30503   28.12201
    1706      153        6     0.00000    0.34306   21.74062   27.38253
    1707      153        6     0.00000    0.16430   20.73090   28.56759
    1708      154        5     0.00000   24.30027   20.08001   26.75635
    1709      154        6     0.00000   25.15962   19.74248   26.39910
    1710      154        6     0.00000   24.13071   20.91439   26.25110
    1711      155        5     0.00000   21.73352   24.73665   27.95455
    1712      155        6     0.00000   21.63678   25.62098   27.51949
    1713      155        6     0.00000   21.10287   24.14938   27.46665
    1714      156        5     0.00000   15.02275   22.03794   39.92843
    1715      156        6     0.00000   15.13815   21.21276   39.39373
    1716      156        6     0.00000   14.58847   21.73484   40.76491
    1717      157        5     0.00000   12.50095   13.89473   44.02750
    1718      157        6     0.00000   13.48385   13.77328   44.04801
    1719      157        6     0.00000   12.31115   14.51197   44.77828
    1720      158        5     0.00000    4.10196   11.67577   27.79078
    1721      158        6     0.00000    4.32383   11.84322   26.84073
    1722      158        6     0.00000    3.13641   11.45574   27.78736
    1723      159        5     0.00000   21.25061   14.04457   26.66066
    1724      159        6     0.00000   20.33474   14.28669   26.37228
    1725      159        6     0.00000   21.25981   13.05431   26.65830
    1726      160        5     0.00000   15.26144   16.39603   38.42949
    1727      160        6     0.00000   15.73015   17.21700   38.72392
    1728      160        6     0.00000   14.59715   16.71306   37.76704
    1729      161        5     0.00000   18.57792    1.89404   52.49930
    1730      161        6     0.00000   18.14391    2.09777   51.63312
    1731      161        6     0.00000   17.87104    1.45083   53.03242
    1732      162        5     0.00000    3.28572   24.21799   49.00459
    1733      162        6     0.00000    2.76470   23.53766   49.50117
    1734      162        6     0.00000    4.20738   24.13045   49.35580
    1735      163        5     0.00000   10.80590   25.62045   38.08644
    1736      163        6     0.00000   10.61006   26.58259   37.95762
    1737      163        6     0.00000   10.73361   25.22876   37.18003
    1738      164        5     0.00000   19.37024   12.70967   50.53481
    1739      164        6     0.00000   19.87523   12.04590   51.06819
    1740      164        6     0.00000   18.67151   12.17813   50.07714
    1741      165        5     0.00000    1.73816   10.40291   35.56753
    1742      165        6     0.00000    1.22712   10.22967   36.39796
    1743      165        6     0.00000    1.15667   11.00674   35.04046
    1744      166        5     0.00000    1.97974    9.30697   41.55512
    1745      166        6     0.00000    1.90798    8.68526   42.32273
    1746      166        6     0.00000    1.43874    8.88373   40.84220
    1747      167        5     0.00000   23.06605   23.13309   40.32406
    1748      167        6     0.00000   22.57999   23.76820   40.90818
    1749      167        6     0.00000   22.37731   22.79818   39.69709
    1750      168        5     0.00000   15.90655    3.62642   51.55925
    1751      168        6     0.00000   15.67758    3.20923   50.68991
    1752      168        6     0.00000   15.36528    4.45448   51.58711
    1753      169        5     0.00000   11.03435    0.22292   30.51315
    1754      169        6     0.00000   10.39450   -0.46083   30.83439
    1755      169        6     0.00000   10.47363    0.87486   30.02288
    1756      170        5     0.00000   18.07977   13.09742   40.11218
    1757      170        6     0.00000   19.01456   12.84926   40.32485
    1758      170        6     0.00000   17.59449   12.23465   40.08248
    1759      171        5     0.00000   14.10451   23.48903   37.39165
    1760      171        6     0.00000   13.13948   23.60285   37.20158
    1761      171        6     0.00000   14.32638   24.23455   38.00415
    1762      172        5     0.00000   24.52240   25.47455   43.19417
    1763      172        6     0.00000   24.16173   26.29789   43.60979
    1764      172        6     0.00000   25.28239   25.21719   43.77435
    1765      173        5     0.00000   10.63319    8.73836   49.11079
    1766      173        6     0.00000   10.01569    8.12217   48.64260
    1767      173        6     0.00000   11.28592    8.14531   49.56084
    1768      174        5     0.00000    1.75577    2.66402   27.84651
    1769      174        6     0.00000    1.47370    3.55412   27.51581
    1770      174        6     0.00000    0.99105    2.06833   27.64646
    1771      175        5     0.00000   10.42894    2.82095   51.58448
    1772      175        6     0.00000   10.96048    2.07674   51.20462
    1773      175        6     0.00000   10.18104    2.51312   52.49247
    1774      176        5     0.00000   13.21808   11.08298   46.16786
    1775      176        6     0.00000   13.49568   12.01541   46.35056
    1776      176        6     0.00000   12.24674   11.07167   46.35897
    1777      177        5     0.00000    8.02754   11.19812   26.64279
    1778      177        6     0.00000    8.74178   10.69891   27.11360
    1779      177        6     0.00000    7.42870   11.51515   27.36492
    1780      178        5     0.00000   20.76639   18.65994   44.40210
    1781      178        6     0.00000   20.97617   19.24958   45.16918
    1782      178        6     0.00000   21.58000   18.10763   44.28828
    1783      179        5     0.00000   24.85311   15.31007   28.56916
    1784      179        6     0.00000   24.94406   16.15707   28.06470
    1785      179        6     0.00000   24.81630   15.58767   29.51868
    1786      180        5     0.00000    4.68582   26.21745   36.99943
    1787      180        6     0.00000    5.65978   26.05814   37.08171
    1788      180        6     0.00000    4.26863   25.42618   37.42372
    1789      181        5     0.00000   14.67522   25.11178   48.43414
    1790      181        6     0.00000   14.12423   25.92776   48.53850
    1791      181        6     0.00000   14.52512   24.60074   49.26878
    1792      182        5     0.00000   10.34692   13.81403   47.89682
    1793      182        6     0.00000   10.53908   13.84295   48.86763
    1794      182        6     0.00000   10.98177   13.14526   47.53641
    1795      183        5     0.00000   21.10077    5.70237   31.13250
    1796      183        6     0.00000   20.25772    5.44580   31.58281
    1797      183        6     0.00000   21.20803    5.03939   30.40485
    1798      184        5     0.00000   14.42286   11.04460   28.78315
    1799      184        6     0.00000   14.43521   12.02172   28.62463
    1800      184        6     0.00000   15.27064   10.85638   29.25896
    1801      185        5     0.00000    5.90978    4.72972   46.71623
    1802      185        6     0.00000    5.16662    5.10721   46.18311
    1803      185        6     0.00000    5.69343    3.76732   46.79378
    1804      186        5     0.00000   21.16123   10.98019   38.45447
    1805      186        6     0.00000   21.79845   11.31773   39.13322
    1806      186        6     0.00000   21.59551   10.16921   38.08828
    1807      187        5     0.00000   21.69146   25.67408   50.52561
    1808      187        6     0.00000   22.41753   26.32838   50.36578
    1809      187        6     0.00000   21.69015   25.10284   49.71673
    1810      188        5     0.00000   14.27459   25.57708   31.89642
    1811      188        6     0.00000   14.15656   25.73480   30.92614
    1812      188        6     0.00000   13.73516   24.76820   32.08359
    1813      189        5     0.00000   16.03115   17.08135   52.41544
    1814      189        6     0.00000   16.51853   16.44019   51.83974
    1815      189        6     0.00000   15.82479   17.84370   51.81792
    1816      190        5     0.00000   13.83558    2.54519   29.50344
    1817      190        6     0.00000   13.99436    2.34777   30.46058
    1818      190        6     0.00000   13.83926    3.53388   29.44902
    1819      191        5     0.00000   17.44859   23.63834   42.97888
    1820      191        6     0.00000   17.58398   24.61520   42.89055
    1821      191        6     0.00000   17.61342   23.28214   42.07010
    1822      192        5     0.00000    6.68843   18.42519   32.39432
    1823      192        6     0.00000    6.89085   17.46384   32.27260
    1824      192        6     0.00000    5.77256   18.44122   32.77050
    1825      444        1     0.00000    8.28831   32.64537   24.93591
    1826      444        1     0.00000    8.26360   45.84426   11.82035
    1827      444        1     0.00000   21.44146   32.73317   11.82403
    1828      444        1     0.00000   21.41255   45.84767   24.98691
    1829      444        1     0.00000   18.02824   46.15761   24.98271
    1830      444        1     0.00000   18.00695   32.97554   11.81405
    1831      444        1     0.00000    4.87877   46.13737   11.81536
    1832      444        1     0.00000    4.88981   32.97843   24.93512
    1833      444        1     0.00000   18.02377   32.72449    1.30940
    1834      444        1     0.00000   17.99039   45.83585   14.46229
    1835      444        1     0.00000    4.88929   32.69558   14.47570
    1836      444        1     0.00000    4.87325   45.84873    1.32202
    1837      444        1     0.00000    8.28016   46.13763    1.32412
    1838      444        1     0.00000    8.26124   33.01156   14.48858
    1839      444        1     0.00000   21.38862   46.10240   14.49725
    1840      444        1     0.00000   21.45224   33.01734    1.31939
    1841      444        1     0.00000   24.97245   34.58384    6.43081
    1842      444        1     0.00000   24.96483   47.69677   19.56871
    1843      444        1     0.00000   11.80274   34.54914   19.64547
    1844      444        1     0.00000   11.80590   47.71412    6.43344
    1845      444        1     0.00000   24.96483   44.30352   19.88075
    1846      444        1     0.00000   24.95668   31.15589    6.69763
    1847      444        1     0.00000   11.81273   44.30379    6.70657
    1848      444        1     0.00000   11.83455   31.04180   19.79584
    1849      444        1     0.00000    1.31702   44.30563    6.42213
    1850      444        1     0.00000    1.32070   31.11068   19.58159
    1851      444        1     0.00000   14.46360   44.29117   19.58659
    1852      444        1     0.00000   14.47333   31.16693    6.42345
    1853      444        1     0.00000    1.33937   34.56333   19.82686
    1854      444        1     0.00000    1.32202   47.72411    6.71892
    1855      444        1     0.00000   14.47175   34.58016    6.70972
    1856      444        1     0.00000   14.46071   47.69046   19.86997
    1857      444        1     0.00000    6.44553   51.25378    8.29962
    1858      444        1     0.00000    6.42660   38.12613   21.41465
    1859      444        1     0.00000   19.57660   51.25142   21.42516
    1860      444        1     0.00000   19.58580   38.10825    8.27964
    1861      444        1     0.00000   19.85341   51.23722   18.02824
    1862      444        1     0.00000   19.85998   38.10510    4.87930
    1863      444        1     0.00000    6.68054   51.25352    4.84749
    1864      444        1     0.00000    6.70999   38.12114   18.01089
    1865      444        1     0.00000    6.38954   27.54867   17.96594
    1866      444        1     0.00000    6.41057   40.73336    4.87351
    1867      444        1     0.00000   19.58922   27.60939    4.85564
    1868      444        1     0.00000   19.55741   40.73573   18.01694
    1869      444        1     0.00000   19.84579   27.60966    8.28936
    1870      444        1     0.00000   19.84290   40.75282   21.41439
    1871      444        1     0.00000    6.69789   27.56733   21.35498
    1872      444        1     0.00000    6.71630   40.74335    8.26018
    1873      444        1     0.00000    6.43475   34.52285    1.28101
    1874      444        1     0.00000    6.40400   47.66575   14.45624
    1875      444        1     0.00000   19.59290   34.58068   14.46203
    1876      444        1     0.00000   19.56845   47.70097    1.34331
    1877      444        1     0.00000   19.86708   44.30904    1.33043
    1878      444        1     0.00000   19.84106   31.14459   14.46807
    1879      444        1     0.00000    6.73391   44.30089   14.45782
    1880      444        1     0.00000    6.72839   31.12987    1.31492
    1881      444        1     0.00000    6.42976   44.28933   24.96614
    1882      444        1     0.00000    6.41451   31.17088   11.83061
    1883      444        1     0.00000   19.56976   44.28959   11.80984
    1884      444        1     0.00000   19.63075   31.18402   24.93644
    1885      444        1     0.00000   19.87786   34.57884   24.97692
    1886      444        1     0.00000   19.85867   47.69966   11.85164
    1887      444        1     0.00000    6.74022   34.54756   11.83718
    1888      444        1     0.00000    6.70736   47.69440   24.96982
    1889      444        1     0.00000    8.25677   51.21593   19.83816
    1890      444        1     0.00000    8.26045   38.10563    6.73049
    1891      444        1     0.00000   21.42569   51.24221    6.71419
    1892      444        1     0.00000   21.41333   38.09853   19.84211
    1893      444        1     0.00000   18.00301   51.25483    6.44264
    1894      444        1     0.00000   17.97751   38.10063   19.57607
    1895      444        1     0.00000    4.87273   51.21120   19.53980
    1896      444        1     0.00000    4.88902   38.08275    6.40768
    1897      444        1     0.00000   18.00905   27.61044   19.85946
    1898      444        1     0.00000   18.00458   40.74388    6.72471
    1899      444        1     0.00000    4.84512   27.61912    6.69421
    1900      444        1     0.00000    4.86011   40.76649   19.85446
    1901      444        1     0.00000    8.29436   27.60913    6.46367
    1902      444        1     0.00000    8.26176   40.75913   19.56635
    1903      444        1     0.00000   21.43305   27.60124   19.57897
    1904      444        1     0.00000   21.42096   40.75361    6.44132
    1905      444        1     0.00000   24.96798   32.73317   17.99170
    1906      444        1     0.00000   24.95589   45.87423    4.87088
    1907      444        1     0.00000   11.82456   32.73448    4.86195
    1908      444        1     0.00000   11.82403   45.85530   18.02036
    1909      444        1     0.00000   24.97456   46.14447    8.26754
    1910      444        1     0.00000   24.98218   32.98317   21.43384
    1911      444        1     0.00000   11.81694   46.13973   21.43410
    1912      444        1     0.00000   11.83218   33.00709    8.26308
    1913      444        1     0.00000    1.31334   32.73422    8.28227
    1914      444        1     0.00000    1.32386   45.85898   21.41570
    1915      444        1     0.00000   14.48595   32.75840   21.43673
    1916      444        1     0.00000   14.45756   45.86765    8.27491
    1917      444        1     0.00000    1.30309   46.13080   18.01904
    1918      444        1     0.00000    1.32176   32.98842    4.85748
    1919      444        1     0.00000   14.45151   46.15025    4.86352
    1920      444        1     0.00000   14.45282   32.94189   17.93991
    1921      444        1     0.00000   18.00563   46.14184    1.33043
    1922      444        1     0.00000   18.03087   33.01418   14.45230
    1923      444        1     0.00000    4.84276   46.09820   14.45335
    1924      444        1     0.00000    4.88824   32.94636    1.31650
    1925      444        1     0.00000    8.29751   32.68953    1.29468
    1926      444        1     0.00000    8.29120   45.87107   14.45966
    1927      444        1     0.00000   21.40492   32.70819   14.46807
    1928      444        1     0.00000   21.43305   45.86871    1.33385
    1929      444        1     0.00000    8.27491   46.13395   24.96010
    1930      444        1     0.00000    8.30435   32.98317   11.83613
    1931      444        1     0.00000   21.42884   46.13868   11.84217
    1932      444        1     0.00000   21.44435   33.01787   24.97508
    1933      444        1     0.00000   18.05190   32.73422   24.95931
    1934      444        1     0.00000   18.01668   45.86108   11.81957
    1935      444        1     0.00000    4.85932   32.74079   11.82535
    1936      444        1     0.00000    4.86720   45.85346   24.97166
    1937      444        1     0.00000    1.31361   44.28985   19.85841
    1938      444        1     0.00000    1.30940   31.16588    6.72313
    1939      444        1     0.00000   14.45650   44.30694    6.70999
    1940      444        1     0.00000   14.48674   31.18428   19.88417
    1941      444        1     0.00000    1.32806   34.55834    6.41477
    1942      444        1     0.00000    1.31624   47.70150   19.57607
    1943      444        1     0.00000   14.44836   34.48788   19.52087
    1944      444        1     0.00000   14.45204   47.71306    6.42818
    1945      444        1     0.00000   24.97272   34.53625   19.85998
    1946      444        1     0.00000   24.96246   47.72647    6.72865
    1947      444        1     0.00000   11.82377   34.57674    6.70972
    1948      444        1     0.00000   11.82114   47.69571   19.86261
    1949      444        1     0.00000   24.97640   44.29958    6.43344
    1950      444        1     0.00000   24.96404   31.17061   19.55715
    1951      444        1     0.00000   11.81431   44.29380   19.58475
    1952      444        1     0.00000   11.83876   31.16667    6.42161
    1953      444        1     0.00000   19.86261   27.61044   18.02036
    1954      444        1     0.00000   19.85604   40.75282    4.87273
    1955      444        1     0.00000    6.73838   27.61097    4.89297
    1956      444        1     0.00000    6.70341   40.76544   17.99801
    1957      444        1     0.00000    6.41504   27.61938    8.24757
    1958      444        1     0.00000    6.43002   40.75939   21.41412
    1959      444        1     0.00000   19.59369   27.63253   21.39704
    1960      444        1     0.00000   19.57502   40.75019    8.27333
    1961      444        1     0.00000   19.86261   51.25194    8.27727
    1962      444        1     0.00000   19.85919   38.09380   21.41570
    1963      444        1     0.00000    6.69132   51.23223   21.40072
    1964      444        1     0.00000    6.69527   38.09774    8.29226
    1965      444        1     0.00000    6.42450   51.20278   17.96541
    1966      444        1     0.00000    6.45473   38.09038    4.84617
    1967      444        1     0.00000   19.56556   51.24747    4.87930
    1968      444        1     0.00000   19.54847   38.09774   18.02246
    1969      444        1     0.00000   19.84237   44.29432   24.97692
    1970      444        1     0.00000   19.87996   31.16667   11.82745
    1971      444        1     0.00000    6.70447   44.27513   11.81273
    1972      444        1     0.00000    6.73943   31.07151   24.96352
    1973      444        1     0.00000    6.47182   34.52521   24.92540
    1974      444        1     0.00000    6.44159   47.70281   11.82456
    1975      444        1     0.00000   19.56582   34.54361   11.81983
    1976      444        1     0.00000   19.59316   47.72069   24.97166
    1977      444        1     0.00000   19.86708   34.56070    1.32885
    1978      444        1     0.00000   19.82712   47.66601   14.49646
    1979      444        1     0.00000    6.70447   34.57910   14.48095
    1980      444        1     0.00000    6.70762   47.69361    1.31571
    1981      444        1     0.00000    6.43344   44.28144    1.32254
    1982      444        1     0.00000    6.45289   31.13092   14.47859
    1983      444        1     0.00000   19.55425   44.26803   14.46281
    1984      444        1     0.00000   19.58396   31.15826    1.31308
    1985      444        1     0.00000   18.02719   27.61071    6.42082
    1986      444        1     0.00000   17.99827   40.74651   19.58817
    1987      444        1     0.00000    4.83356   27.54604   19.53690
    1988      444        1     0.00000    4.84512   40.73021    6.43528
    1989      444        1     0.00000    8.25861   27.57206   19.79216
    1990      444        1     0.00000    8.27780   40.74940    6.69474
    1991      444        1     0.00000   21.41281   27.60335    6.73075
    1992      444        1     0.00000   21.40624   40.74046   19.85183
    1993      444        1     0.00000    8.24967   51.26167    6.40032
    1994      444        1     0.00000    8.26938   38.12876   19.58081
    1995      444        1     0.00000   21.43384   51.26062   19.56871
    1996      444        1     0.00000   21.42648   38.11719    6.43291
    1997      444        1     0.00000   18.00695   51.25904   19.86603
    1998      444        1     0.00000   18.01299   38.09879    6.71945
    1999      444        1     0.00000    4.88193   51.25799    6.73759
    2000      444        1     0.00000    4.85879   38.11930   19.85473
    2001      444        1     0.00000    1.32912   46.13816    8.26938
    2002      444        1     0.00000    1.33648   33.00288   21.39309
    2003      444        1     0.00000   14.46465   46.13789   21.44067
    2004      444        1     0.00000   14.47123   33.00157    8.26045
    2005      444        1     0.00000    1.30756   32.66587   18.01063
    2006      444        1     0.00000    1.32675   45.87712    4.87220
    2007      444        1     0.00000   14.47780   32.72975    4.86274
    2008      444        1     0.00000   14.45966   45.85372   18.02193
    2009      444        1     0.00000   24.95274   46.11818   18.02062
    2010      444        1     0.00000   24.96851   33.01681    4.87010
    2011      444        1     0.00000   11.80879   46.15183    4.86826
    2012      444        1     0.00000   11.80300   33.00945   18.06031
    2013      444        1     0.00000   24.95826   32.72213    8.25887
    2014      444        1     0.00000   24.95773   45.87055   21.44173
    2015      444        1     0.00000   11.87004   32.57544   21.38626
    2016      444        1     0.00000   11.81220   45.86424    8.27385
    2017      444        2     0.00000    7.33064   33.55388   -0.03417
    2018      444        2     0.00000    7.31277   46.73542   13.13948
    2019      444        2     0.00000   20.47906   33.61986   13.14395
    2020      444        2     0.00000   20.48563   46.77196    0.01025
    2021      444        2     0.00000   18.97776   45.26514    0.00789
    2022      444        2     0.00000   18.97066   32.10673   13.14080
    2023      444        2     0.00000    5.80963   45.22255   13.13659
    2024      444        2     0.00000    5.81068   32.04101   -0.02813
    2025      444        2     0.00000   18.99774   33.60724   -0.00158
    2026      444        2     0.00000   18.96909   46.71938   13.15893
    2027      444        2     0.00000    5.82671   33.61302   13.15394
    2028      444        2     0.00000    5.83618   46.72622    0.00105
    2029      444        2     0.00000    7.35457   45.21887    0.00499
    2030      444        2     0.00000    7.33827   32.09174   13.16104
    2031      444        2     0.00000   20.48958   45.20099   13.15473
    2032      444        2     0.00000   20.51639   32.09753    0.00394
    2033      444        2     0.00000   -0.00131   33.62459    7.32197
    2034      444        2     0.00000   -0.00657   46.77038   20.49273
    2035      444        2     0.00000   13.14290   33.53547   20.43096
    2036      444        2     0.00000   13.13186   46.76565    7.32828
    2037      444        2     0.00000   -0.01078   45.25225   18.98591
    2038      444        2     0.00000   -0.00499   32.11014    5.81541
    2039      444        2     0.00000   13.13186   45.25777    5.81620
    2040      444        2     0.00000   13.14448   32.04206   18.91888
    2041      444        2     0.00000    0.00447   45.27696    7.29253
    2042      444        2     0.00000    0.00789   32.08491   20.46960
    2043      444        2     0.00000   13.14080   45.21571   20.51113
    2044      444        2     0.00000   13.15420   32.13223    7.29463
    2045      444        2     0.00000    0.00946   33.60330   18.95331
    2046      444        2     0.00000   -0.00131   46.80009    5.79333
    2047      444        2     0.00000   13.15052   33.65272    5.78492
    2048      444        2     0.00000   13.14132   46.73042   18.98670
    2049      444        2     0.00000    7.32328   26.29184    7.32696
    2050      444        2     0.00000    7.29778   39.44315   20.44410
    2051      444        2     0.00000   20.48695   26.28159   20.48537
    2052      444        2     0.00000   20.45908   39.43316    7.31277
    2053      444        2     0.00000   18.94201   26.28659   18.94201
    2054      444        2     0.00000   18.94543   39.43132    5.79937
    2055      444        2     0.00000    5.81015   26.29316    5.81804
    2056      444        2     0.00000    5.78202   39.44158   18.92650
    2057      444        2     0.00000    7.34142   26.23664   18.88365
    2058      444        2     0.00000    7.32302   39.41976    5.81409
    2059      444        2     0.00000   20.48590   26.28369    5.80437
    2060      444        2     0.00000   20.43516   39.41818   18.97855
    2061      444        2     0.00000   18.97250   26.28843    7.31934
    2062      444        2     0.00000   18.92703   39.40819   20.48932
    2063      444        2     0.00000    5.82645   26.24531   20.40519
    2064      444        2     0.00000    5.81068   39.41266    7.32539
    2065      444        3     0.00000    8.51123   30.84885   23.34681
    2066      444        3     0.00000    7.82643   31.54311   24.47719
    2067      444        3     0.00000    8.47154   44.08980   10.20049
    2068      444        3     0.00000    7.79121   44.75699   11.33771
    2069      444        3     0.00000   17.81768   47.91338   23.36416
    2070      444        3     0.00000   18.50353   47.24172   24.49743
    2071      444        3     0.00000   17.81242   34.74787   10.20575
    2072      444        3     0.00000   18.48092   34.06649   11.34007
    2073      444        3     0.00000    4.68661   34.75628   23.33104
    2074      444        3     0.00000    5.37351   34.06412   24.45563
    2075      444        3     0.00000   17.81426   30.95611    2.92111
    2076      444        3     0.00000   18.49406   31.63407    1.78679
    2077      444        3     0.00000   17.78797   44.07114   16.07453
    2078      444        3     0.00000   18.46672   44.74726   14.93968
    2079      444        3     0.00000    4.65664   30.91352   16.06716
    2080      444        3     0.00000    5.35931   31.60305   14.95019
    2081      444        3     0.00000    8.47154   47.90812    2.92584
    2082      444        3     0.00000    7.79831   47.22542    1.79520
    2083      444        3     0.00000    8.47469   34.77679   16.10292
    2084      444        3     0.00000    7.79094   34.10172   14.96412
    2085      444        3     0.00000   23.37336   34.79151    4.65611
    2086      444        3     0.00000   24.49796   34.10960    5.34065
    2087      444        3     0.00000   10.19392   34.77074   17.85790
    2088      444        3     0.00000   11.32430   34.09067   18.54848
    2089      444        3     0.00000   23.34208   44.10084   21.62968
    2090      444        3     0.00000   24.48192   44.78091   20.96434
    2091      444        3     0.00000   23.34707   30.95716    8.46760
    2092      444        3     0.00000   24.47982   31.63302    7.78542
    2093      444        3     0.00000   10.20049   44.09900    8.47049
    2094      444        3     0.00000   11.33508   44.77671    7.79568
    2095      444        3     0.00000    2.93215   44.09480    4.66295
    2096      444        3     0.00000    1.79836   44.78249    5.34012
    2097      444        3     0.00000   16.06979   44.08612   17.81741
    2098      444        3     0.00000   14.93836   44.76619   18.49696
    2099      444        3     0.00000   16.09634   30.96846    4.66452
    2100      444        3     0.00000   14.95650   31.64301    5.33934
    2101      444        3     0.00000    2.94451   34.76969   21.60603
    2102      444        3     0.00000    1.81413   34.09094   20.91886
    2103      444        3     0.00000   16.09293   34.75392    8.46786
    2104      444        3     0.00000   14.95308   34.09146    7.79200
    2105      444        3     0.00000    4.67504   49.63681    8.48968
    2106      444        3     0.00000    5.35485   50.77744    7.82459
    2107      444        3     0.00000    4.66952   36.50496   21.61785
    2108      444        3     0.00000    5.33960   37.64401   20.94173
    2109      444        3     0.00000   21.60497   49.61131   17.83424
    2110      444        3     0.00000   20.94541   50.76614   18.49643
    2111      444        3     0.00000   21.63310   36.50811    4.66584
    2112      444        3     0.00000   20.95356   37.63744    5.34643
    2113      444        3     0.00000    8.45866   49.64181    4.64928
    2114      444        3     0.00000    7.77386   50.77981    5.31646
    2115      444        3     0.00000    4.60669   29.13830   17.75196
    2116      444        3     0.00000    5.29491   28.01396   18.43938
    2117      444        3     0.00000    4.64533   42.34376    4.66058
    2118      444        3     0.00000    5.31936   41.20786    5.34486
    2119      444        3     0.00000   21.61654   29.22426    8.48600
    2120      444        3     0.00000   20.93516   28.08626    7.81513
    2121      444        3     0.00000   21.60944   42.36847   21.61470
    2122      444        3     0.00000   20.93227   41.22810   20.93700
    2123      444        3     0.00000    8.47338   42.36400    8.46444
    2124      444        3     0.00000    7.80225   41.22547    7.78464
    2125      444        3     0.00000    4.68608   34.72500    2.92111
    2126      444        3     0.00000    5.35747   34.04362    1.77943
    2127      444        3     0.00000    4.64165   47.86921   16.06138
    2128      444        3     0.00000    5.31541   47.18809   14.92969
    2129      444        3     0.00000   21.62627   44.09506    2.94477
    2130      444        3     0.00000   20.95698   44.77749    1.80782
    2131      444        3     0.00000   21.59577   30.96636   16.09818
    2132      444        3     0.00000   20.92464   31.62566   14.95151
    2133      444        3     0.00000    8.49231   30.94349    2.93610
    2134      444        3     0.00000    7.81881   31.60883    1.78784
    2135      444        3     0.00000    4.66426   44.09822   23.35102
    2136      444        3     0.00000    5.34091   44.76777   24.48981
    2137      444        3     0.00000    4.66452   30.97293   10.20233
    2138      444        3     0.00000    5.33250   31.65063   11.34638
    2139      444        3     0.00000   21.63074   34.76443   23.34918
    2140      444        3     0.00000   20.96355   34.10198   24.49559
    2141      444        3     0.00000   21.62600   47.90707   10.23178
    2142      444        3     0.00000   20.95119   47.22989   11.37162
    2143      444        3     0.00000    8.48994   34.75366   10.21495
    2144      444        3     0.00000    7.82643   34.07148   11.35690
    2145      444        3     0.00000    8.46339   49.62577   21.61628
    2146      444        3     0.00000    7.78122   50.75142   20.93227
    2147      444        3     0.00000    8.47128   36.48945    8.48679
    2148      444        3     0.00000    7.78595   37.62456    7.81671
    2149      444        3     0.00000   17.80164   49.63786    4.67478
    2150      444        3     0.00000   18.47592   50.77429    5.35379
    2151      444        3     0.00000   17.78560   36.48235   17.80611
    2152      444        3     0.00000   18.45673   37.62088   18.49038
    2153      444        3     0.00000    4.69318   36.46342    4.64849
    2154      444        3     0.00000    5.36904   37.60484    5.32146
    2155      444        3     0.00000   17.84528   29.26106   21.59709
    2156      444        3     0.00000   18.50221   28.10650   20.93043
    2157      444        3     0.00000   17.80847   42.36716    8.47548
    2158      444        3     0.00000   18.48565   41.22837    7.80383
    2159      444        3     0.00000    4.66347   29.24213    8.46234
    2160      444        3     0.00000    5.32908   28.10203    7.77701
    2161      444        3     0.00000    8.49783   29.22137    4.68661
    2162      444        3     0.00000    7.82275   28.08836    5.37351
    2163      444        3     0.00000    8.47837   42.36795   17.80085
    2164      444        3     0.00000    7.79331   41.23678   18.47592
    2165      444        3     0.00000   23.34076   30.97293   17.81110
    2166      444        3     0.00000   24.48481   31.64827   18.47198
    2167      444        3     0.00000   10.21916   30.95926    4.67057
    2168      444        3     0.00000   11.35453   31.64222    5.33802
    2169      444        3     0.00000   23.35680   47.90470    8.49678
    2170      444        3     0.00000   24.48981   47.23673    7.81145
    2171      444        3     0.00000   10.19839   47.89918   21.62075
    2172      444        3     0.00000   11.33981   47.22490   20.95146
    2173      444        3     0.00000   10.21101   34.76627    8.47548
    2174      444        3     0.00000   11.34928   34.09541    7.79515
    2175      444        3     0.00000    2.92979   30.97004    8.47837
    2176      444        3     0.00000    1.78968   31.64432    7.80829
    2177      444        3     0.00000   16.12973   31.01000   21.60655
    2178      444        3     0.00000   14.97438   31.67508   20.95961
    2179      444        3     0.00000    2.91848   47.88472   17.79822
    2180      444        3     0.00000    1.78574   47.21859   18.48618
    2181      444        3     0.00000    2.94924   34.74288    4.65112
    2182      444        3     0.00000    1.80598   34.07595    5.32908
    2183      444        3     0.00000   16.06638   47.91154    4.66742
    2184      444        3     0.00000   14.92942   47.23778    5.34012
    2185      444        3     0.00000   17.79927   47.90602    2.94556
    2186      444        3     0.00000   18.47619   47.22910    1.81202
    2187      444        3     0.00000   17.81373   34.76443   16.06532
    2188      444        3     0.00000   18.50274   34.10093   14.93310
    2189      444        3     0.00000    8.49231   44.10084   16.07137
    2190      444        3     0.00000    7.81960   44.78065   14.93705
    2191      444        3     0.00000    8.46602   47.90023   23.35023
    2192      444        3     0.00000    7.79515   47.22385   24.48849
    2193      444        3     0.00000   17.88892   31.01946   23.29818
    2194      444        3     0.00000   18.54664   31.66719   24.45642
    2195      444        3     0.00000   17.81110   44.10663   10.19392
    2196      444        3     0.00000   18.48565   44.77513   11.33245
    2197      444        3     0.00000    2.93688   44.09900   21.61628
    2198      444        3     0.00000    1.79809   44.76961   20.94147
    2199      444        3     0.00000   16.07794   44.10400    8.46970
    2200      444        3     0.00000   14.93731   44.78065    7.79725
    2201      444        3     0.00000   16.06690   34.73026   17.77667
    2202      444        3     0.00000   14.92732   34.03048   18.42861
    2203      444        3     0.00000   23.35732   34.74708   21.61628
    2204      444        3     0.00000   24.49769   34.06649   20.95040
    2205      444        3     0.00000   23.35075   44.09900    4.67951
    2206      444        3     0.00000   24.48876   44.77802    5.34959
    2207      444        3     0.00000   10.21443   44.09217   17.80821
    2208      444        3     0.00000   11.34428   44.76829   18.49301
    2209      444        3     0.00000   21.61444   29.23530   17.82767
    2210      444        3     0.00000   20.95093   28.08678   18.49669
    2211      444        3     0.00000   21.62548   42.36006    4.67136
    2212      444        3     0.00000   20.94567   41.22837    5.35116
    2213      444        3     0.00000    4.66794   42.37136   21.61969
    2214      444        3     0.00000    5.34144   41.23941   20.94278
    2215      444        3     0.00000   21.62390   49.63340    8.49125
    2216      444        3     0.00000   20.94935   50.76851    7.80567
    2217      444        3     0.00000   21.62390   36.47840   21.60340
    2218      444        3     0.00000   20.94541   37.61562   20.92990
    2219      444        3     0.00000    4.65559   49.60211   17.78482
    2220      444        3     0.00000    5.33907   50.73065   18.45200
    2221      444        3     0.00000   21.61049   44.09269   23.36101
    2222      444        3     0.00000   20.93227   44.76672   24.50032
    2223      444        3     0.00000   21.63231   30.96084   10.21127
    2224      444        3     0.00000   20.96565   31.64275   11.34822
    2225      444        3     0.00000    4.67767   47.90129   10.20996
    2226      444        3     0.00000    5.35432   47.22700   11.34402
    2227      444        3     0.00000   21.64362   34.78862    2.92532
    2228      444        3     0.00000   20.96565   34.10066    1.79783
    2229      444        3     0.00000   21.56134   47.83925   16.14208
    2230      444        3     0.00000   20.90046   47.17811   14.98857
    2231      444        3     0.00000    4.66768   44.08481    2.93794
    2232      444        3     0.00000    5.34748   44.76172    1.80256
    2233      444        3     0.00000   17.82214   29.22820    4.65716
    2234      444        3     0.00000   18.50116   28.08915    5.33224
    2235      444        3     0.00000   17.79481   42.34954   17.81400
    2236      444        3     0.00000   18.47224   41.21706   18.49301
    2237      444        3     0.00000    8.46865   29.15722   21.57685
    2238      444        3     0.00000    7.78464   28.04235   20.88469
    2239      444        3     0.00000    8.47680   36.51153   17.82767
    2240      444        3     0.00000    7.79804   37.64848   18.49354
    2241      444        3     0.00000   17.81242   49.63681   21.62548
    2242      444        3     0.00000   18.48670   50.77666   20.95040
    2243      444        3     0.00000   17.83135   36.47709    8.47548
    2244      444        3     0.00000   18.49880   37.62219    7.80619
    2245      444        3     0.00000    2.94188   47.90707    8.48416
    2246      444        3     0.00000    1.80440   47.23331    7.80304
    2247      444        3     0.00000   16.08557   47.90050   21.62863
    2248      444        3     0.00000   14.94336   47.22227   20.95829
    2249      444        3     0.00000    2.89325   30.88434   17.77246
    2250      444        3     0.00000    1.78022   31.57335   18.47882
    2251      444        3     0.00000   23.33051   47.87631   17.82872
    2252      444        3     0.00000   24.47772   47.20965   18.49091
    2253      444        3     0.00000   10.19471   47.91443    4.66400
    2254      444        3     0.00000   11.32930   47.23936    5.34380
    2255      444        3     0.00000   10.25544   30.82072   21.61312
    2256      444        3     0.00000   11.38292   31.49527   20.90913
    2257      444        3     0.00000    9.71154   31.35384   22.80370
    2258      444        4     0.00000   10.19629   32.18953   23.28898
    2259      444        3     0.00000    9.62295   44.65631    9.62531
    2260      444        4     0.00000   10.04487   45.56087   10.04881
    2261      444        3     0.00000   16.66889   47.34346   22.78320
    2262      444        4     0.00000   16.25302   46.43626   23.20275
    2263      444        3     0.00000   16.65996   34.19293    9.62137
    2264      444        4     0.00000   16.23409   33.28995   10.04382
    2265      444        3     0.00000    3.52626   47.33662    9.62926
    2266      444        4     0.00000    3.10644   46.42706   10.04461
    2267      444        3     0.00000   16.66837   31.52524    3.50602
    2268      444        4     0.00000   16.24855   32.43138    3.08410
    2269      444        3     0.00000   16.64208   44.64159   16.65943
    2270      444        4     0.00000   16.22305   45.54773   16.23909
    2271      444        3     0.00000    3.52153   44.65552    3.51890
    2272      444        4     0.00000    3.11144   45.56666    3.10434
    2273      444        3     0.00000    9.62163   47.34977    3.51049
    2274      444        4     0.00000   10.04513   46.44546    3.09356
    2275      444        3     0.00000    9.62295   34.21107   16.69492
    2276      444        4     0.00000   10.04776   33.30808   16.27247
    2277      444        3     0.00000   22.78688   35.93372    5.22630
    2278      444        4     0.00000   23.20065   36.34802    6.13901
    2279      444        3     0.00000   22.77294   49.04665   18.37656
    2280      444        4     0.00000   23.22457   49.49381   19.25431
    2281      444        3     0.00000    9.61664   35.92583   18.40863
    2282      444        4     0.00000   10.02515   36.33960   19.32240
    2283      444        3     0.00000   22.76059   42.95390   21.05529
    2284      444        4     0.00000   23.18304   42.54223   20.14652
    2285      444        3     0.00000   22.76558   29.80180    7.91397
    2286      444        4     0.00000   23.18146   29.37804    7.00809
    2287      444        3     0.00000    9.63215   29.71295   21.02217
    2288      444        4     0.00000   10.02699   29.31048   20.09841
    2289      444        3     0.00000    3.49445   42.92919    5.21894
    2290      444        4     0.00000    3.06596   42.49912    6.11641
    2291      444        3     0.00000    3.43925   29.70007   18.29717
    2292      444        4     0.00000    2.99472   29.25107   19.17439
    2293      444        3     0.00000    3.51916   35.92636   21.05214
    2294      444        4     0.00000    3.09777   36.34907   20.14784
    2295      444        3     0.00000    3.52389   49.05848    7.92291
    2296      444        4     0.00000    3.10565   49.47882    7.01677
    2297      444        3     0.00000    5.23786   49.05401    9.63688
    2298      444        4     0.00000    6.14033   49.47593   10.06038
    2299      444        3     0.00000   18.37498   49.06479   22.78136
    2300      444        4     0.00000   19.27849   49.49013   23.20117
    2301      444        3     0.00000   18.38339   35.89928    9.63110
    2302      444        4     0.00000   19.28401   36.32304   10.05670
    2303      444        3     0.00000   21.00876   48.99933   16.71648
    2304      444        4     0.00000   20.10183   49.41836   16.30165
    2305      444        3     0.00000   21.07238   35.93188    3.51154
    2306      444        4     0.00000   20.16387   36.34959    3.09514
    2307      444        3     0.00000    7.90582   49.06084    3.49655
    2308      444        4     0.00000    7.00231   49.48145    3.07174
    2309      444        3     0.00000    5.19580   29.74318   16.62736
    2310      444        4     0.00000    6.11089   29.33519   16.21622
    2311      444        3     0.00000   18.37498   29.80101    3.49761
    2312      444        4     0.00000   19.27429   29.37436    3.07016
    2313      444        3     0.00000   21.06344   29.80706    9.63977
    2314      444        4     0.00000   20.15914   29.38882   10.06564
    2315      444        3     0.00000    7.91029   29.73556   22.73167
    2316      444        4     0.00000    6.97944   29.34834   23.12625
    2317      444        3     0.00000    5.25495   35.87510    3.50023
    2318      444        4     0.00000    6.16057   36.29229    3.07831
    2319      444        3     0.00000   18.35868   35.91795   16.65260
    2320      444        4     0.00000   19.25957   36.35117   16.23672
    2321      444        3     0.00000   21.06555   42.93734    3.51706
    2322      444        4     0.00000   20.16282   42.51463    3.09041
    2323      444        3     0.00000    7.92317   42.94996   16.64734
    2324      444        4     0.00000    7.01755   42.53382   16.22279
    2325      444        3     0.00000    7.93789   29.78997    3.52284
    2326      444        4     0.00000    7.04069   29.35938    3.09724
    2327      444        3     0.00000    5.22709   42.94681   22.77321
    2328      444        4     0.00000    6.13165   42.52383   23.19513
    2329      444        3     0.00000    5.23077   29.82257    9.61480
    2330      444        4     0.00000    6.13954   29.40564   10.02962
    2331      444        3     0.00000   18.37156   42.95049    9.62163
    2332      444        4     0.00000   19.27560   42.52988   10.04513
    2333      444        3     0.00000   21.06187   35.90454   22.75717
    2334      444        4     0.00000   20.15020   36.31884   23.16831
    2335      444        3     0.00000    7.91660   35.90270    9.63793
    2336      444        4     0.00000    7.00967   36.31857   10.05880
    2337      444        3     0.00000    9.61717   49.04796   21.05477
    2338      444        4     0.00000   10.03830   49.46594   20.14915
    2339      444        3     0.00000    9.62637   35.91900    7.91897
    2340      444        4     0.00000   10.04171   36.34565    7.01230
    2341      444        3     0.00000   16.64813   49.06058    5.23340
    2342      444        4     0.00000   16.22805   49.47856    6.13928
    2343      444        3     0.00000   16.63498   35.88404   18.35763
    2344      444        4     0.00000   16.20702   36.29334   19.26535
    2345      444        3     0.00000    3.53388   35.89455    5.20895
    2346      444        4     0.00000    3.11117   36.32278    6.11010
    2347      444        3     0.00000   16.68440   29.83887   21.05240
    2348      444        4     0.00000   16.23541   29.40091   20.16939
    2349      444        3     0.00000   16.65812   42.94970    7.90924
    2350      444        4     0.00000   16.23909   42.53119    7.00283
    2351      444        3     0.00000    3.51022   29.82205    7.90898
    2352      444        4     0.00000    3.08462   29.40196    7.00651
    2353      444        3     0.00000    9.64871   29.80680    5.23892
    2354      444        4     0.00000   10.07379   29.38698    6.14217
    2355      444        3     0.00000    9.63189   42.93971   18.36499
    2356      444        4     0.00000   10.05144   42.51227   19.26745
    2357      444        3     0.00000   22.75218   31.53181   16.66443
    2358      444        4     0.00000   23.17252   32.43349   16.23514
    2359      444        3     0.00000   22.77505   44.65815    3.52626
    2360      444        4     0.00000   23.19618   45.56219    3.10434
    2361      444        3     0.00000    9.63557   31.51761    3.51758
    2362      444        4     0.00000   10.05013   32.42481    3.09777
    2363      444        3     0.00000   22.77978   47.34425    9.65160
    2364      444        4     0.00000   23.20538   46.44099   10.07142
    2365      444        3     0.00000   22.77952   34.19451   22.77189
    2366      444        4     0.00000   23.19881   33.29047   23.19618
    2367      444        3     0.00000    9.63872   34.19635    9.62689
    2368      444        4     0.00000   10.06511   33.29152   10.04198
    2369      444        3     0.00000    3.51022   31.53207    9.62873
    2370      444        4     0.00000    3.08988   32.43743   10.05065
    2371      444        3     0.00000    3.51522   44.66314   22.76769
    2372      444        4     0.00000    3.09645   45.56929   23.18724
    2373      444        3     0.00000    3.49103   47.31323   16.64629
    2374      444        4     0.00000    3.06832   46.40682   16.23146
    2375      444        3     0.00000    3.52994   34.17112    3.50339
    2376      444        4     0.00000    3.10408   33.26681    3.08673
    2377      444        3     0.00000   16.64550   47.34609    3.51916
    2378      444        4     0.00000   16.22621   46.44231    3.09409
    2379      444        3     0.00000   16.66469   34.18347   16.63051
    2380      444        4     0.00000   16.25933   33.27417   16.20491
    2381      444        3     0.00000    9.64266   44.65867   16.65496
    2382      444        4     0.00000   10.06432   45.56561   16.23909
    2383      444        3     0.00000    9.61454   47.33583   22.76926
    2384      444        4     0.00000   10.03462   46.43100   23.19040
    2385      444        3     0.00000   16.74329   31.59438   22.72352
    2386      444        4     0.00000   16.33846   32.51156   23.13414
    2387      444        3     0.00000   16.65891   44.66840    9.61927
    2388      444        4     0.00000   16.23698   45.57165   10.04434
    2389      444        3     0.00000    3.51864   42.95049   21.05424
    2390      444        4     0.00000    3.10092   42.53093   20.14705
    2391      444        3     0.00000    3.50497   49.03351   18.35395
    2392      444        4     0.00000    3.09172   49.45753   19.26114
    2393      444        3     0.00000   22.77584   35.89508   21.04320
    2394      444        4     0.00000   23.19513   36.31069   20.13495
    2395      444        3     0.00000   22.77505   49.05322    7.93080
    2396      444        4     0.00000   23.18777   49.46752    7.01834
    2397      444        3     0.00000   22.77373   42.94391    5.23734
    2398      444        4     0.00000   23.19381   42.52436    6.14085
    2399      444        3     0.00000   22.76874   29.81915   18.38103
    2400      444        4     0.00000   23.19907   29.39828   19.28165
    2401      444        3     0.00000   21.03505   29.82047   16.68782
    2402      444        4     0.00000   20.12707   29.39934   16.27431
    2403      444        3     0.00000   18.43360   29.85648   22.72694
    2404      444        4     0.00000   19.33948   29.43377   23.14308
    2405      444        3     0.00000   21.06265   49.05716    9.64687
    2406      444        4     0.00000   20.15888   49.47909   10.06800
    2407      444        3     0.00000    7.90372   49.05270   22.77137
    2408      444        4     0.00000    7.00047   49.47567   23.19487
    2409      444        3     0.00000    5.21105   49.01905   16.63367
    2410      444        4     0.00000    6.11641   49.43597   16.21070
    2411      444        3     0.00000   18.36630   49.05585    3.52521
    2412      444        4     0.00000   19.27271   49.47725    3.10329
    2413      444        3     0.00000   21.04925   42.94234   22.77347
    2414      444        4     0.00000   20.14231   42.51726   23.18803
    2415      444        3     0.00000    7.90977   42.93997    9.61717
    2416      444        4     0.00000    7.00441   42.52068   10.03803
    2417      444        3     0.00000    5.24049   35.91742   22.76164
    2418      444        4     0.00000    6.14453   36.33987   23.18225
    2419      444        3     0.00000    7.91976   35.93477   16.67257
    2420      444        4     0.00000    7.02360   36.36326   16.23909
    2421      444        3     0.00000    5.21894   42.92446    3.51285
    2422      444        4     0.00000    6.12429   42.50201    3.09330
    2423      444        3     0.00000   18.34764   42.91789   16.65260
    2424      444        4     0.00000   19.24485   42.48913   16.22410
    2425      444        3     0.00000   16.67731   29.81652    5.22682
    2426      444        4     0.00000   16.26038   29.40170    6.13533
    2427      444        3     0.00000   16.64918   42.93471   18.38050
    2428      444        4     0.00000   16.23173   42.51752   19.28848
    2429      444        3     0.00000    9.62216   42.94838    7.90425
    2430      444        4     0.00000   10.04329   42.53040    6.99915
    2431      444        3     0.00000    9.60875   49.06453    5.22262
    2432      444        4     0.00000   10.01963   49.48198    6.13297
    2433      444        3     0.00000   16.66364   49.05086   21.06108
    2434      444        4     0.00000   16.24250   49.46699   20.15283
    2435      444        3     0.00000   16.68808   35.89455    7.89846
    2436      444        4     0.00000   16.27799   36.30780    6.98575
    2437      444        3     0.00000    3.52547   34.20398   22.75770
    2438      444        4     0.00000    3.09908   33.30335   23.18172
    2439      444        3     0.00000    3.50023   31.47477   16.64445
    2440      444        4     0.00000    3.10171   32.40325   16.24908
    2441      444        3     0.00000   22.72300   47.28773   16.70675
    2442      444        4     0.00000   23.13519   46.37632   16.29324
    2443      444        3     0.00000   22.80528   34.23868    3.49498
    2444      444        4     0.00000   23.23430   33.34226    3.06596
    2445      444        3     0.00000   22.77794   31.52156    9.62242
    2446      444        4     0.00000   23.20144   32.42639   10.03961
    2447      444        3     0.00000   22.76348   44.65552   22.78504
    2448      444        4     0.00000   23.18067   45.55825   23.21064
    2449      193        5     0.00000    9.82484   39.78805   12.15395
    2450      193        6     0.00000    9.24677   40.51885   11.81851
    2451      193        6     0.00000    9.83325   39.90871   13.13685
    2452      194        5     0.00000   15.41890   29.10439   10.05749
    2453      194        6     0.00000   15.35213   28.93167   11.03014
    2454      194        6     0.00000   16.17600   29.73687    9.96863
    2455      195        5     0.00000   24.01768   49.72409   24.24848
    2456      195        6     0.00000   24.59864   48.92757   24.33839
    2457      195        6     0.00000   23.12073   49.35474   24.04949
    2458      196        5     0.00000   11.92866   51.19621    1.63590
    2459      196        6     0.00000   12.07272   51.09500    0.66140
    2460      196        6     0.00000   12.42024   50.43754    2.04047
    2461      197        5     0.00000   22.27400   36.02704   16.64576
    2462      197        6     0.00000   21.82053   36.72262   17.18493
    2463      197        6     0.00000   22.36627   35.25707   17.26116
    2464      198        5     0.00000    0.68375   47.49750   12.23859
    2465      198        6     0.00000    1.46818   47.72358   11.67866
    2466      198        6     0.00000    0.47713   46.55745   12.00700
    2467      199        5     0.00000   13.18654   28.66748   16.32189
    2468      199        6     0.00000   13.37791   27.97374   15.64183
    2469      199        6     0.00000   13.64132   29.47951   15.98357
    2470      200        5     0.00000    5.12246   27.18563   23.82551
    2471      200        6     0.00000    5.85300   27.42590   24.44932
    2472      200        6     0.00000    4.87115   28.04078   23.39387
    2473      201        5     0.00000    2.61538   42.51831    0.28365
    2474      201        6     0.00000    3.54597   42.85191    0.22818
    2475      201        6     0.00000    2.06255   43.33639    0.36120
    2476      202        5     0.00000   14.62816   38.14558    8.65766
    2477      202        6     0.00000   15.37842   38.11956    9.30355
    2478      202        6     0.00000   13.81429   38.14006    9.22074
    2479      203        5     0.00000   22.47326   42.47757   15.67285
    2480      203        6     0.00000   21.69830   42.95364   16.06217
    2481      203        6     0.00000   22.24535   42.38004   14.71413
    2482      204        5     0.00000   11.03067   52.10866    7.37533
    2483      204        6     0.00000   11.66946   52.84657    7.20946
    2484      204        6     0.00000   11.45364   51.31714    6.95736
    2485      205        5     0.00000   13.90157   41.96758   23.90569
    2486      205        6     0.00000   13.37712   42.06853   23.07184
    2487      205        6     0.00000   13.88790   42.86820   24.31657
    2488      206        5     0.00000   24.27872   40.83589   25.33838
    2489      206        6     0.00000   23.71195   41.64634   25.39043
    2490      206        6     0.00000   24.37414   40.66107   24.36836
    2491      207        5     0.00000    0.29837   52.61549   10.98492
    2492      207        6     0.00000   -0.61067   52.45908   10.62504
    2493      207        6     0.00000    0.78680   51.77507   10.79723
    2494      208        5     0.00000    1.31255   51.94358   15.75933
    2495      208        6     0.00000    1.78784   51.15415   16.12184
    2496      208        6     0.00000    1.54152   51.95199   14.79614
    2497      209        5     0.00000   26.18249   27.12885   19.56056
    2498      209        6     0.00000   25.98585   28.01922   19.17413
    2499      209        6     0.00000   26.55656   27.32364   20.45672
    2500      210        5     0.00000   25.03528   44.30852   12.35926
    2501      210        6     0.00000   24.22377   43.97361   12.81667
    2502      210        6     0.00000   24.69774   44.72466   11.52646
    2503      211        5     0.00000   14.43758   42.38740    4.35485
    2504      211        6     0.00000   15.11370   42.93498    3.88193
    2505      211        6     0.00000   14.60161   41.46285    4.04098
    2506      212        5     0.00000   23.18067   28.06470   14.62790
    2507      212        6     0.00000   23.14860   27.84125   15.59162
    2508      212        6     0.00000   22.51979   28.79103   14.51250
    2509      213        5     0.00000   13.08769   34.08568   25.97271
    2510      213        6     0.00000   12.35689   33.82622   25.35731
    2511      213        6     0.00000   12.88133   35.02127   26.22297
    2512      214        5     0.00000    9.93078   29.88619    9.16449
    2513      214        6     0.00000    9.01990   30.06021    9.51149
    2514      214        6     0.00000   10.44445   30.70059    9.39556
    2515      215        5     0.00000    7.92081   27.49635   13.93916
    2516      215        6     0.00000    8.31276   28.39619   14.07060
    2517      215        6     0.00000    8.65555   26.87123   14.16208
    2518      216        5     0.00000   24.64280   38.59327    2.86486
    2519      216        6     0.00000   24.87598   38.52623    3.82463
    2520      216        6     0.00000   23.68435   38.84274    2.85907
    2521      217        5     0.00000   19.14548   52.58500   12.01541
    2522      217        6     0.00000   19.37523   51.65993   11.74622
    2523      217        6     0.00000   18.18834   52.54031   12.26593
    2524      218        5     0.00000    0.58491   34.22606   11.97282
    2525      218        6     0.00000    0.37723   34.09909   11.01305
    2526      218        6     0.00000    1.55992   34.39798   11.99569
    2527      219        5     0.00000    8.64267   50.16467   13.13159
    2528      219        6     0.00000    8.78620   50.33502   14.09636
    2529      219        6     0.00000    8.22128   50.99432   12.79274
    2530      220        5     0.00000   16.89313   39.41581    4.15612
    2531      220        6     0.00000   16.34214   39.32512    3.34172
    2532      220        6     0.00000   17.26405   40.33116    4.09513
    2533      221        5     0.00000   15.99750   50.31504    0.15930
    2534      221        6     0.00000   16.91232   49.98986    0.35541
    2535      221        6     0.00000   15.48568   50.13103    0.98711
    2536      222        5     0.00000    4.15533   43.46783    8.93053
    2537      222        6     0.00000    3.48499   42.79355    9.20655
    2538      222        6     0.00000    4.60170   43.06405    8.14478
    2539      223        5     0.00000   13.92602   51.28559   14.49278
    2540      223        6     0.00000   12.94390   51.37181   14.58505
    2541      223        6     0.00000   14.25356   51.17124   15.41996
    2542      224        5     0.00000   11.36794   43.08403   13.42628
    2543      224        6     0.00000   12.19706   42.56537   13.27013
    2544      224        6     0.00000   10.94339   42.64581   14.20624
    2545      225        5     0.00000    1.63379   39.91318   20.38574
    2546      225        6     0.00000    1.05940   39.18948   20.74220
    2547      225        6     0.00000    1.22291   40.15135   19.51666
    2548      226        5     0.00000    8.11534   34.68636    4.48288
    2549      226        6     0.00000    8.91975   35.13483    4.11905
    2550      226        6     0.00000    8.41108   34.30755    5.34854
    2551      227        5     0.00000    4.48787   40.61743   13.48937
    2552      227        6     0.00000    4.39087   39.67344   13.77171
    2553      227        6     0.00000    5.46525   40.75098   13.40210
    2554      228        5     0.00000   12.56272   36.16479   15.02906
    2555      228        6     0.00000   12.97308   36.98708   14.66102
    2556      228        6     0.00000   12.55221   35.53125   14.26802
    2557      229        5     0.00000   13.49200   44.63685    1.11198
    2558      229        6     0.00000   14.23306   45.29037    1.04731
    2559      229        6     0.00000   13.35583   44.51225    2.08463
    2560      230        5     0.00000   10.01175   42.59192    3.19924
    2561      230        6     0.00000   10.89371   42.88950    2.86091
    2562      230        6     0.00000    9.35429   43.09717    2.65771
    2563      231        5     0.00000    4.29071   29.91668    3.45449
    2564      231        6     0.00000    4.54781   29.11069    2.93951
    2565      231        6     0.00000    3.30202   29.88592    3.48630
    2566      232        5     0.00000   25.32708   50.96751    5.70526
    2567      232        6     0.00000   25.22666   51.86024    6.12193
    2568      232        6     0.00000   26.16172   50.60368    6.09459
    2569      233        5     0.00000   12.71756   37.47419    5.24391
    2570      233        6     0.00000   12.66078   36.78072    4.53939
    2571      233        6     0.00000   12.89106   38.31593    4.75206
    2572      234        5     0.00000   26.01635   37.73602   23.64597
    2573      234        6     0.00000   26.63359   38.45236   23.94065
    2574      234        6     0.00000   26.48979   36.89454   23.86573
    2575      235        5     0.00000   14.58926   38.50494   12.24911
    2576      235        6     0.00000   14.24988   37.80253   11.63976
    2577      235        6     0.00000   14.61318   38.06856   13.13712
    2578      236        5     0.00000   24.08760   39.11745   10.16895
    2579      236        6     0.00000   25.02187   38.95052   10.45181
    2580      236        6     0.00000   23.53582   38.66161   10.85296
    2581      237        5     0.00000   11.57719   48.53430   24.94722
    2582      237        6     0.00000   10.91500   49.23960   25.15805
    2583      237        6     0.00000   11.42656   47.83898   25.63570
    2584      238        5     0.00000    1.49841   28.65302   24.72824
    2585      238        6     0.00000    0.67060   29.07337   25.07314
    2586      238        6     0.00000    2.21554   29.29970   24.94748
    2587      239        5     0.00000    2.05677   43.41210   12.28907
    2588      239        6     0.00000    1.40220   42.68813   12.12319
    2589      239        6     0.00000    2.59751   43.45232   11.46074
    2590      240        5     0.00000   23.91673   35.47210   13.86082
    2591      240        6     0.00000   24.22745   36.21474   13.28380
    2592      240        6     0.00000   23.03714   35.21580   13.48517
    2593      241        5     0.00000   26.16882   32.96371    0.68480
    2594      241        6     0.00000   25.70799   33.63432    1.24973
    2595      241        6     0.00000   26.34258   33.43479   -0.16877
    2596      242        5     0.00000   16.88735   38.19763    0.55047
    2597      242        6     0.00000   16.65706   37.34406    0.10436
    2598      242        6     0.00000   16.08031   38.76046    0.44032
    2599      243        5     0.00000    0.95977   28.14961    4.77204
    2600      243        6     0.00000    1.88905   28.31995    5.06726
    2601      243        6     0.00000    0.40247   28.70928    5.36930
    2602      244        5     0.00000   13.43391   27.77422   26.22402
    2603      244        6     0.00000   13.80535   28.62411   25.88044
    2604      244        6     0.00000   13.59584   27.12254   25.49663
    2605      245        5     0.00000   25.72166   41.83246   10.21995
    2606      245        6     0.00000   24.87493   42.02410   10.69628
    2607      245        6     0.00000   26.12728   42.72204   10.06406
    2608      246        5     0.00000   14.62580   49.58003   17.59817
    2609      246        6     0.00000   13.85031   49.72172   18.19727
    2610      246        6     0.00000   14.43837   48.71989   17.14497
    2611      247        5     0.00000    4.39981   36.95711   13.12581
    2612      247        6     0.00000    3.57410   36.63350   12.68523
    2613      247        6     0.00000    5.02835   37.12956   12.38029
    2614      248        5     0.00000   16.56585   28.29998   15.95938
    2615      248        6     0.00000   16.51143   27.31655   16.06243
    2616      248        6     0.00000   17.32977   28.56811   16.52957
    2617      249        5     0.00000    0.83701   47.59293    1.83411
    2618      249        6     0.00000    0.34306   48.02852    1.09463
    2619      249        6     0.00000    0.16430   47.01880    2.27969
    2620      250        5     0.00000   24.30027   46.36791    0.46845
    2621      250        6     0.00000   25.15962   46.03038    0.11120
    2622      250        6     0.00000   24.13071   47.20229   -0.03680
    2623      251        5     0.00000   21.73352   51.02455    1.66665
    2624      251        6     0.00000   21.63678   51.90888    1.23159
    2625      251        6     0.00000   21.10287   50.43728    1.17875
    2626      252        5     0.00000   15.02275   48.32584   13.64053
    2627      252        6     0.00000   15.13815   47.50066   13.10583
    2628      252        6     0.00000   14.58847   48.02274   14.47701
    2629      253        5     0.00000   12.50095   40.18263   17.73960
    2630      253        6     0.00000   13.48385   40.06118   17.76011
    2631      253        6     0.00000   12.31115   40.79987   18.49038
    2632      254        5     0.00000    4.10196   37.96367    1.50288
    2633      254        6     0.00000    4.32383   38.13112    0.55283
    2634      254        6     0.00000    3.13641   37.74364    1.49946
    2635      255        5     0.00000   21.25061   40.33247    0.37276
    2636      255        6     0.00000   20.33474   40.57459    0.08438
    2637      255        6     0.00000   21.25981   39.34221    0.37040
    2638      256        5     0.00000   15.26144   42.68393   12.14159
    2639      256        6     0.00000   15.73015   43.50490   12.43602
    2640      256        6     0.00000   14.59715   43.00096   11.47914
    2641      257        5     0.00000   18.57792   28.18194   26.21140
    2642      257        6     0.00000   18.14391   28.38567   25.34522
    2643      257        6     0.00000   17.87104   27.73873   26.74452
    2644      258        5     0.00000    3.28572   50.50589   22.71669
    2645      258        6     0.00000    2.76470   49.82556   23.21327
    2646      258        6     0.00000    4.20738   50.41835   23.06790
    2647      259        5     0.00000   10.80590   51.90835   11.79854
    2648      259        6     0.00000   10.61006   52.87049   11.66972
    2649      259        6     0.00000   10.73361   51.51666   10.89213
    2650      260        5     0.00000   19.37024   38.99757   24.24691
    2651      260        6     0.00000   19.87523   38.33380   24.78029
    2652      260        6     0.00000   18.67151   38.46603   23.78924
    2653      261        5     0.00000    1.73816   36.69081    9.27963
    2654      261        6     0.00000    1.22712   36.51757   10.11006
    2655      261        6     0.00000    1.15667   37.29464    8.75256
    2656      262        5     0.00000    1.97974   35.59487   15.26722
    2657      262        6     0.00000    1.90798   34.97316   16.03483
    2658      262        6     0.00000    1.43874   35.17163   14.55430
    2659      263        5     0.00000   23.06605   49.42099   14.03616
    2660      263        6     0.00000   22.57999   50.05610   14.62028
    2661      263        6     0.00000   22.37731   49.08608   13.40919
    2662      264        5     0.00000   15.90655   29.91432   25.27135
    2663      264        6     0.00000   15.67758   29.49713   24.40201
    2664      264        6     0.00000   15.36528   30.74238   25.29921
    2665      265        5     0.00000   11.03435   26.51082    4.22525
    2666      265        6     0.00000   10.39450   25.82707    4.54649
    2667      265        6     0.00000   10.47363   27.16276    3.73498
    2668      266        5     0.00000   18.07977   39.38532   13.82428
    2669      266        6     0.00000   19.01456   39.13716   14.03695
    2670      266        6     0.00000   17.59449   38.52255   13.79458
    2671      267        5     0.00000   14.10451   49.77693   11.10375
    2672      267        6     0.00000   13.13948   49.89075   10.91368
    2673      267        6     0.00000   14.32638   50.52245   11.71625
    2674      268        5     0.00000   24.52240   51.76245   16.90627
    2675      268        6     0.00000   24.16173   52.58579   17.32189
    2676      268        6     0.00000   25.28239   51.50509   17.48645
    2677      269        5     0.00000   10.63319   35.02626   22.82289
    2678      269        6     0.00000   10.01569   34.41007   22.35470
    2679      269        6     0.00000   11.28592   34.43321   23.27294
    2680      270        5     0.00000    1.75577   28.95192    1.55861
    2681      270        6     0.00000    1.47370   29.84202    1.22791
    2682      270        6     0.00000    0.99105   28.35623    1.35856
    2683      271        5     0.00000   10.42894   29.10885   25.29658
    2684      271        6     0.00000   10.96048   28.36464   24.91672
    2685      271        6     0.00000   10.18104   28.80102   26.20457
    2686      272        5     0.00000   13.21808   37.37088   19.87996
    2687      272        6     0.00000   13.49568   38.30331   20.06266
    2688      272        6     0.00000   12.24674   37.35957   20.07107
    2689      273        5     0.00000    8.02754   37.48602    0.35489
    2690      273        6     0.00000    8.74178   36.98681    0.82570
    2691      273        6     0.00000    7.42870   37.80305    1.07702
    2692      274        5     0.00000   20.76639   44.94784   18.11420
    2693      274        6     0.00000   20.97617   45.53748   18.88128
    2694      274        6     0.00000   21.58000   44.39553   18.00038
    2695      275        5     0.00000   24.85311   41.59797    2.28126
    2696      275        6     0.00000   24.94406   42.44497    1.77680
    2697      275        6     0.00000   24.81630   41.87557    3.23078
    2698      276        5     0.00000    4.68582   52.50535   10.71153
    2699      276        6     0.00000    5.65978   52.34604   10.79381
    2700      276        6     0.00000    4.26863   51.71408   11.13582
    2701      277        5     0.00000   14.67522   51.39968   22.14624
    2702      277        6     0.00000   14.12423   52.21566   22.25060
    2703      277        6     0.00000   14.52512   50.88864   22.98088
    2704      278        5     0.00000   10.34692   40.10193   21.60892
    2705      278        6     0.00000   10.53908   40.13085   22.57973
    2706      278        6     0.00000   10.98177   39.43316   21.24851
    2707      279        5     0.00000   21.10077   31.99027    4.84460
    2708      279        6     0.00000   20.25772   31.73370    5.29491
    2709      279        6     0.00000   21.20803   31.32729    4.11695
    2710      280        5     0.00000   14.42286   37.33250    2.49525
    2711      280        6     0.00000   14.43521   38.30962    2.33673
    2712      280        6     0.00000   15.27064   37.14428    2.97106
    2713      281        5     0.00000    5.90978   31.01762   20.42833
    2714      281        6     0.00000    5.16662   31.39511   19.89521
    2715      281        6     0.00000    5.69343   30.05522   20.50588
    2716      282        5     0.00000   21.16123   37.26809   12.16657
    2717      282        6     0.00000   21.79845   37.60563   12.84532
    2718      282        6     0.00000   21.59551   36.45711   11.80038
    2719      283        5     0.00000   21.69146   51.96198   24.23771
    2720      283        6     0.00000   22.41753   52.61628   24.07788
    2721      283        6     0.00000   21.69015   51.39074   23.42883
    2722      284        5     0.00000   14.27459   51.86498    5.60852
    2723      284        6     0.00000   14.15656   52.02270    4.63824
    2724      284        6     0.00000   13.73516   51.05610    5.79569
    2725      285        5     0.00000   16.03115   43.36925   26.12754
    2726      285        6     0.00000   16.51853   42.72809   25.55184
    2727      285        6     0.00000   15.82479   44.13160   25.53002
    2728      286        5     0.00000   13.83558   28.83309    3.21554
    2729      286        6     0.00000   13.99436   28.63567    4.17268
    2730      286        6     0.00000   13.83926   29.82178    3.16112
    2731      287        5     0.00000   17.44859   49.92624   16.69098
    2732      287        6     0.00000   17.58398   50.90310   16.60265
    2733      287        6     0.00000   17.61342   49.57004   15.78220
    2734      288        5     0.00000    6.68843   44.71309    6.10642
    2735      288        6     0.00000    6.89085   43.75174    5.98470
    2736      288        6     0.00000    5.77256   44.72912    6.48260
    2737      444        1     0.00000    8.28831   32.64537   51.22381
    2738      444        1     0.00000    8.26360   45.84426   38.10825
    2739      444        1     0.00000   21.44146   32.73317   38.11193
    2740      444        1     0.00000   21.41255   45.84767   51.27481
    2741      444        1     0.00000   18.02824   46.15761   51.27061
    2742      444        1     0.00000   18.00695   32.97554   38.10195
    2743      444        1     0.00000    4.87877   46.13737   38.10326
    2744      444        1     0.00000    4.88981   32.97843   51.22302
    2745      444        1     0.00000   18.02377   32.72449   27.59730
    2746      444        1     0.00000   17.99039   45.83585   40.75019
    2747      444        1     0.00000    4.88929   32.69558   40.76360
    2748      444        1     0.00000    4.87325   45.84873   27.60992
    2749      444        1     0.00000    8.28016   46.13763   27.61202
    2750      444        1     0.00000    8.26124   33.01156   40.77648
    2751      444        1     0.00000   21.38862   46.10240   40.78515
    2752      444        1     0.00000   21.45224   33.01734   27.60729
    2753      444        1     0.00000   24.97245   34.58384   32.71871
    2754      444        1     0.00000   24.96483   47.69677   45.85661
    2755      444        1     0.00000   11.80274   34.54914   45.93337
    2756      444        1     0.00000   11.80590   47.71412   32.72134
    2757      444        1     0.00000   24.96483   44.30352   46.16865
    2758      444        1     0.00000   24.95668   31.15589   32.98553
    2759      444        1     0.00000   11.81273   44.30379   32.99447
    2760      444        1     0.00000   11.83455   31.04180   46.08374
    2761      444        1     0.00000    1.31702   44.30563   32.71003
    2762      444        1     0.00000    1.32070   31.11068   45.86949
    2763      444        1     0.00000   14.46360   44.29117   45.87449
    2764      444        1     0.00000   14.47333   31.16693   32.71135
    2765      444        1     0.00000    1.33937   34.56333   46.11476
    2766      444        1     0.00000    1.32202   47.72411   33.00682
    2767      444        1     0.00000   14.47175   34.58016   32.99762
    2768      444        1     0.00000   14.46071   47.69046   46.15787
    2769      444        1     0.00000    6.44553   51.25378   34.58752
    2770      444        1     0.00000    6.42660   38.12613   47.70255
    2771      444        1     0.00000   19.57660   51.25142   47.71306
    2772      444        1     0.00000   19.58580   38.10825   34.56754
    2773      444        1     0.00000   19.85341   51.23722   44.31614
    2774      444        1     0.00000   19.85998   38.10510   31.16720
    2775      444        1     0.00000    6.68054   51.25352   31.13539
    2776      444        1     0.00000    6.70999   38.12114   44.29879
    2777      444        1     0.00000    6.38954   27.54867   44.25384
    2778      444        1     0.00000    6.41057   40.73336   31.16141
    2779      444        1     0.00000   19.58922   27.60939   31.14354
    2780      444        1     0.00000   19.55741   40.73573   44.30484
    2781      444        1     0.00000   19.84579   27.60966   34.57726
    2782      444        1     0.00000   19.84290   40.75282   47.70229
    2783      444        1     0.00000    6.69789   27.56733   47.64288
    2784      444        1     0.00000    6.71630   40.74335   34.54808
    2785      444        1     0.00000    6.43475   34.52285   27.56891
    2786      444        1     0.00000    6.40400   47.66575   40.74414
    2787      444        1     0.00000   19.59290   34.58068   40.74993
    2788      444        1     0.00000   19.56845   47.70097   27.63121
    2789      444        1     0.00000   19.86708   44.30904   27.61833
    2790      444        1     0.00000   19.84106   31.14459   40.75597
    2791      444        1     0.00000    6.73391   44.30089   40.74572
    2792      444        1     0.00000    6.72839   31.12987   27.60282
    2793      444        1     0.00000    6.42976   44.28933   51.25404
    2794      444        1     0.00000    6.41451   31.17088   38.11851
    2795      444        1     0.00000   19.56976   44.28959   38.09774
    2796      444        1     0.00000   19.63075   31.18402   51.22434
    2797      444        1     0.00000   19.87786   34.57884   51.26482
    2798      444        1     0.00000   19.85867   47.69966   38.13954
    2799      444        1     0.00000    6.74022   34.54756   38.12508
    2800      444        1     0.00000    6.70736   47.69440   51.25772
    2801      444        1     0.00000    8.25677   51.21593   46.12606
    2802      444        1     0.00000    8.26045   38.10563   33.01839
    2803      444        1     0.00000   21.42569   51.24221   33.00209
    2804      444        1     0.00000   21.41333   38.09853   46.13001
    2805      444        1     0.00000   18.00301   51.25483   32.73054
    2806      444        1     0.00000   17.97751   38.10063   45.86397
    2807      444        1     0.00000    4.87273   51.21120   45.82770
    2808      444        1     0.00000    4.88902   38.08275   32.69558
    2809      444        1     0.00000   18.00905   27.61044   46.14736
    2810      444        1     0.00000   18.00458   40.74388   33.01261
    2811      444        1     0.00000    4.84512   27.61912   32.98211
    2812      444        1     0.00000    4.86011   40.76649   46.14236
    2813      444        1     0.00000    8.29436   27.60913   32.75157
    2814      444        1     0.00000    8.26176   40.75913   45.85425
    2815      444        1     0.00000   21.43305   27.60124   45.86687
    2816      444        1     0.00000   21.42096   40.75361   32.72922
    2817      444        1     0.00000   24.96798   32.73317   44.27960
    2818      444        1     0.00000   24.95589   45.87423   31.15878
    2819      444        1     0.00000   11.82456   32.73448   31.14985
    2820      444        1     0.00000   11.82403   45.85530   44.30826
    2821      444        1     0.00000   24.97456   46.14447   34.55544
    2822      444        1     0.00000   24.98218   32.98317   47.72174
    2823      444        1     0.00000   11.81694   46.13973   47.72200
    2824      444        1     0.00000   11.83218   33.00709   34.55098
    2825      444        1     0.00000    1.31334   32.73422   34.57017
    2826      444        1     0.00000    1.32386   45.85898   47.70360
    2827      444        1     0.00000   14.48595   32.75840   47.72463
    2828      444        1     0.00000   14.45756   45.86765   34.56281
    2829      444        1     0.00000    1.30309   46.13080   44.30694
    2830      444        1     0.00000    1.32176   32.98842   31.14538
    2831      444        1     0.00000   14.45151   46.15025   31.15142
    2832      444        1     0.00000   14.45282   32.94189   44.22781
    2833      444        1     0.00000   18.00563   46.14184   27.61833
    2834      444        1     0.00000   18.03087   33.01418   40.74020
    2835      444        1     0.00000    4.84276   46.09820   40.74125
    2836      444        1     0.00000    4.88824   32.94636   27.60440
    2837      444        1     0.00000    8.29751   32.68953   27.58258
    2838      444        1     0.00000    8.29120   45.87107   40.74756
    2839      444        1     0.00000   21.40492   32.70819   40.75597
    2840      444        1     0.00000   21.43305   45.86871   27.62175
    2841      444        1     0.00000    8.27491   46.13395   51.24800
    2842      444        1     0.00000    8.30435   32.98317   38.12403
    2843      444        1     0.00000   21.42884   46.13868   38.13007
    2844      444        1     0.00000   21.44435   33.01787   51.26298
    2845      444        1     0.00000   18.05190   32.73422   51.24721
    2846      444        1     0.00000   18.01668   45.86108   38.10747
    2847      444        1     0.00000    4.85932   32.74079   38.11325
    2848      444        1     0.00000    4.86720   45.85346   51.25956
    2849      444        1     0.00000    1.31361   44.28985   46.14631
    2850      444        1     0.00000    1.30940   31.16588   33.01103
    2851      444        1     0.00000   14.45650   44.30694   32.99789
    2852      444        1     0.00000   14.48674   31.18428   46.17207
    2853      444        1     0.00000    1.32806   34.55834   32.70267
    2854      444        1     0.00000    1.31624   47.70150   45.86397
    2855      444        1     0.00000   14.44836   34.48788   45.80877
    2856      444        1     0.00000   14.45204   47.71306   32.71608
    2857      444        1     0.00000   24.97272   34.53625   46.14788
    2858      444        1     0.00000   24.96246   47.72647   33.01655
    2859      444        1     0.00000   11.82377   34.57674   32.99762
    2860      444        1     0.00000   11.82114   47.69571   46.15051
    2861      444        1     0.00000   24.97640   44.29958   32.72134
    2862      444        1     0.00000   24.96404   31.17061   45.84505
    2863      444        1     0.00000   11.81431   44.29380   45.87265
    2864      444        1     0.00000   11.83876   31.16667   32.70951
    2865      444        1     0.00000   19.86261   27.61044   44.30826
    2866      444        1     0.00000   19.85604   40.75282   31.16063
    2867      444        1     0.00000    6.73838   27.61097   31.18087
    2868      444        1     0.00000    6.70341   40.76544   44.28591
    2869      444        1     0.00000    6.41504   27.61938   34.53547
    2870      444        1     0.00000    6.43002   40.75939   47.70202
    2871      444        1     0.00000   19.59369   27.63253   47.68494
    2872      444        1     0.00000   19.57502   40.75019   34.56123
    2873      444        1     0.00000   19.86261   51.25194   34.56517
    2874      444        1     0.00000   19.85919   38.09380   47.70360
    2875      444        1     0.00000    6.69132   51.23223   47.68862
    2876      444        1     0.00000    6.69527   38.09774   34.58016
    2877      444        1     0.00000    6.42450   51.20278   44.25331
    2878      444        1     0.00000    6.45473   38.09038   31.13407
    2879      444        1     0.00000   19.56556   51.24747   31.16720
    2880      444        1     0.00000   19.54847   38.09774   44.31036
    2881      444        1     0.00000   19.84237   44.29432   51.26482
    2882      444        1     0.00000   19.87996   31.16667   38.11535
    2883      444        1     0.00000    6.70447   44.27513   38.10063
    2884      444        1     0.00000    6.73943   31.07151   51.25142
    2885      444        1     0.00000    6.47182   34.52521   51.21330
    2886      444        1     0.00000    6.44159   47.70281   38.11246
    2887      444        1     0.00000   19.56582   34.54361   38.10773
    2888      444        1     0.00000   19.59316   47.72069   51.25956
    2889      444        1     0.00000   19.86708   34.56070   27.61675
    2890      444        1     0.00000   19.82712   47.66601   40.78436
    2891      444        1     0.00000    6.70447   34.57910   40.76885
    2892      444        1     0.00000    6.70762   47.69361   27.60361
    2893      444        1     0.00000    6.43344   44.28144   27.61044
    2894      444        1     0.00000    6.45289   31.13092   40.76649
    2895      444        1     0.00000   19.55425   44.26803   40.75071
    2896      444        1     0.00000   19.58396   31.15826   27.60098
    2897      444        1     0.00000   18.02719   27.61071   32.70872
    2898      444        1     0.00000   17.99827   40.74651   45.87607
    2899      444        1     0.00000    4.83356   27.54604   45.82480
    2900      444        1     0.00000    4.84512   40.73021   32.72318
    2901      444        1     0.00000    8.25861   27.57206   46.08006
    2902      444        1     0.00000    8.27780   40.74940   32.98264
    2903      444        1     0.00000   21.41281   27.60335   33.01865
    2904      444        1     0.00000   21.40624   40.74046   46.13973
    2905      444        1     0.00000    8.24967   51.26167   32.68822
    2906      444        1     0.00000    8.26938   38.12876   45.86871
    2907      444        1     0.00000   21.43384   51.26062   45.85661
    2908      444        1     0.00000   21.42648   38.11719   32.72081
    2909      444        1     0.00000   18.00695   51.25904   46.15393
    2910      444        1     0.00000   18.01299   38.09879   33.00735
    2911      444        1     0.00000    4.88193   51.25799   33.02549
    2912      444        1     0.00000    4.85879   38.11930   46.14263
    2913      444        1     0.00000    1.32912   46.13816   34.55728
    2914      444        1     0.00000    1.33648   33.00288   47.68099
    2915      444        1     0.00000   14.46465   46.13789   47.72857
    2916      444        1     0.00000   14.47123   33.00157   34.54835
    2917      444        1     0.00000    1.30756   32.66587   44.29853
    2918      444        1     0.00000    1.32675   45.87712   31.16010
    2919      444        1     0.00000   14.47780   32.72975   31.15064
    2920      444        1     0.00000   14.45966   45.85372   44.30983
    2921      444        1     0.00000   24.95274   46.11818   44.30852
    2922      444        1     0.00000   24.96851   33.01681   31.15800
    2923      444        1     0.00000   11.80879   46.15183   31.15616
    2924      444        1     0.00000   11.80300   33.00945   44.34821
    2925      444        1     0.00000   24.95826   32.72213   34.54677
    2926      444        1     0.00000   24.95773   45.87055   47.72963
    2927      444        1     0.00000   11.87004   32.57544   47.67416
    2928      444        1     0.00000   11.81220   45.86424   34.56175
    2929      444        2     0.00000    7.33064   33.55388   26.25373
    2930      444        2     0.00000    7.31277   46.73542   39.42738
    2931      444        2     0.00000   20.47906   33.61986   39.43185
    2932      444        2     0.00000   20.48563   46.77196   26.29815
    2933      444        2     0.00000   18.97776   45.26514   26.29579
    2934      444        2     0.00000   18.97066   32.10673   39.42870
    2935      444        2     0.00000    5.80963   45.22255   39.42449
    2936      444        2     0.00000    5.81068   32.04101   26.25977
    2937      444        2     0.00000   18.99774   33.60724   26.28632
    2938      444        2     0.00000   18.96909   46.71938   39.44683
    2939      444        2     0.00000    5.82671   33.61302   39.44184
    2940      444        2     0.00000    5.83618   46.72622   26.28895
    2941      444        2     0.00000    7.35457   45.21887   26.29289
    2942      444        2     0.00000    7.33827   32.09174   39.44894
    2943      444        2     0.00000   20.48958   45.20099   39.44263
    2944      444        2     0.00000   20.51639   32.09753   26.29184
    2945      444        2     0.00000   -0.00131   33.62459   33.60987
    2946      444        2     0.00000   -0.00657   46.77038   46.78063
    2947      444        2     0.00000   13.14290   33.53547   46.71886
    2948      444        2     0.00000   13.13186   46.76565   33.61618
    2949      444        2     0.00000   -0.01078   45.25225   45.27381
    2950      444        2     0.00000   -0.00499   32.11014   32.10331
    2951      444        2     0.00000   13.13186   45.25777   32.10410
    2952      444        2     0.00000   13.14448   32.04206   45.20678
    2953      444        2     0.00000    0.00447   45.27696   33.58043
    2954      444        2     0.00000    0.00789   32.08491   46.75750
    2955      444        2     0.00000   13.14080   45.21571   46.79903
    2956      444        2     0.00000   13.15420   32.13223   33.58253
    2957      444        2     0.00000    0.00946   33.60330   45.24121
    2958      444        2     0.00000   -0.00131   46.80009   32.08123
    2959      444        2     0.00000   13.15052   33.65272   32.07282
    2960      444        2     0.00000   13.14132   46.73042   45.27460
    2961      444        2     0.00000    7.32328   26.29184   33.61486
    2962      444        2     0.00000    7.29778   39.44315   46.73200
    2963      444        2     0.00000   20.48695   26.28159   46.77327
    2964      444        2     0.00000   20.45908   39.43316   33.60067
    2965      444        2     0.00000   18.94201   26.28659   45.22991
    2966      444        2     0.00000   18.94543   39.43132   32.08727
    2967      444        2     0.00000    5.81015   26.29316   32.10594
    2968      444        2     0.00000    5.78202   39.44158   45.21440
    2969      444        2     0.00000    7.34142   26.23664   45.17155
    2970      444        2     0.00000    7.32302   39.41976   32.10199
    2971      444        2     0.00000   20.48590   26.28369   32.09227
    2972      444        2     0.00000   20.43516   39.41818   45.26645
    2973      444        2     0.00000   18.97250   26.28843   33.60724
    2974      444        2     0.00000   18.92703   39.40819   46.77722
    2975      444        2     0.00000    5.82645   26.24531   46.69309
    2976      444        2     0.00000    5.81068   39.41266   33.61329
    2977      444        3     0.00000    8.51123   30.84885   49.63471
    2978      444        3     0.00000    7.82643   31.54311   50.76509
    2979      444        3     0.00000    8.47154   44.08980   36.48839
    2980      444        3     0.00000    7.79121   44.75699   37.62561
    2981      444        3     0.00000   17.81768   47.91338   49.65206
    2982      444        3     0.00000   18.50353   47.24172   50.78533
    2983      444        3     0.00000   17.81242   34.74787   36.49365
    2984      444        3     0.00000   18.48092   34.06649   37.62797
    2985      444        3     0.00000    4.68661   34.75628   49.61894
    2986      444        3     0.00000    5.37351   34.06412   50.74353
    2987      444        3     0.00000   17.81426   30.95611   29.20901
    2988      444        3     0.00000   18.49406   31.63407   28.07469
    2989      444        3     0.00000   17.78797   44.07114   42.36243
    2990      444        3     0.00000   18.46672   44.74726   41.22758
    2991      444        3     0.00000    4.65664   30.91352   42.35506
    2992      444        3     0.00000    5.35931   31.60305   41.23809
    2993      444        3     0.00000    8.47154   47.90812   29.21374
    2994      444        3     0.00000    7.79831   47.22542   28.08310
    2995      444        3     0.00000    8.47469   34.77679   42.39082
    2996      444        3     0.00000    7.79094   34.10172   41.25202
    2997      444        3     0.00000   23.37336   34.79151   30.94401
    2998      444        3     0.00000   24.49796   34.10960   31.62855
    2999      444        3     0.00000   10.19392   34.77074   44.14580
    3000      444        3     0.00000   11.32430   34.09067   44.83638
    3001      444        3     0.00000   23.34208   44.10084   47.91758
    3002      444        3     0.00000   24.48192   44.78091   47.25224
    3003      444        3     0.00000   23.34707   30.95716   34.75550
    3004      444        3     0.00000   24.47982   31.63302   34.07332
    3005      444        3     0.00000   10.20049   44.09900   34.75839
    3006      444        3     0.00000   11.33508   44.77671   34.08358
    3007      444        3     0.00000    2.93215   44.09480   30.95085
    3008      444        3     0.00000    1.79836   44.78249   31.62802
    3009      444        3     0.00000   16.06979   44.08612   44.10531
    3010      444        3     0.00000   14.93836   44.76619   44.78486
    3011      444        3     0.00000   16.09634   30.96846   30.95242
    3012      444        3     0.00000   14.95650   31.64301   31.62724
    3013      444        3     0.00000    2.94451   34.76969   47.89393
    3014      444        3     0.00000    1.81413   34.09094   47.20676
    3015      444        3     0.00000   16.09293   34.75392   34.75576
    3016      444        3     0.00000   14.95308   34.09146   34.07990
    3017      444        3     0.00000    4.67504   49.63681   34.77758
    3018      444        3     0.00000    5.35485   50.77744   34.11249
    3019      444        3     0.00000    4.66952   36.50496   47.90575
    3020      444        3     0.00000    5.33960   37.64401   47.22963
    3021      444        3     0.00000   21.60497   49.61131   44.12214
    3022      444        3     0.00000   20.94541   50.76614   44.78433
    3023      444        3     0.00000   21.63310   36.50811   30.95374
    3024      444        3     0.00000   20.95356   37.63744   31.63433
    3025      444        3     0.00000    8.45866   49.64181   30.93718
    3026      444        3     0.00000    7.77386   50.77981   31.60436
    3027      444        3     0.00000    4.60669   29.13830   44.03986
    3028      444        3     0.00000    5.29491   28.01396   44.72728
    3029      444        3     0.00000    4.64533   42.34376   30.94848
    3030      444        3     0.00000    5.31936   41.20786   31.63276
    3031      444        3     0.00000   21.61654   29.22426   34.77390
    3032      444        3     0.00000   20.93516   28.08626   34.10303
    3033      444        3     0.00000   21.60944   42.36847   47.90260
    3034      444        3     0.00000   20.93227   41.22810   47.22490
    3035      444        3     0.00000    8.47338   42.36400   34.75234
    3036      444        3     0.00000    7.80225   41.22547   34.07254
    3037      444        3     0.00000    4.68608   34.72500   29.20901
    3038      444        3     0.00000    5.35747   34.04362   28.06733
    3039      444        3     0.00000    4.64165   47.86921   42.34928
    3040      444        3     0.00000    5.31541   47.18809   41.21759
    3041      444        3     0.00000   21.62627   44.09506   29.23267
    3042      444        3     0.00000   20.95698   44.77749   28.09572
    3043      444        3     0.00000   21.59577   30.96636   42.38608
    3044      444        3     0.00000   20.92464   31.62566   41.23941
    3045      444        3     0.00000    8.49231   30.94349   29.22400
    3046      444        3     0.00000    7.81881   31.60883   28.07574
    3047      444        3     0.00000    4.66426   44.09822   49.63892
    3048      444        3     0.00000    5.34091   44.76777   50.77771
    3049      444        3     0.00000    4.66452   30.97293   36.49023
    3050      444        3     0.00000    5.33250   31.65063   37.63428
    3051      444        3     0.00000   21.63074   34.76443   49.63708
    3052      444        3     0.00000   20.96355   34.10198   50.78349
    3053      444        3     0.00000   21.62600   47.90707   36.51968
    3054      444        3     0.00000   20.95119   47.22989   37.65952
    3055      444        3     0.00000    8.48994   34.75366   36.50285
    3056      444        3     0.00000    7.82643   34.07148   37.64480
    3057      444        3     0.00000    8.46339   49.62577   47.90418
    3058      444        3     0.00000    7.78122   50.75142   47.22017
    3059      444        3     0.00000    8.47128   36.48945   34.77469
    3060      444        3     0.00000    7.78595   37.62456   34.10461
    3061      444        3     0.00000   17.80164   49.63786   30.96268
    3062      444        3     0.00000   18.47592   50.77429   31.64169
    3063      444        3     0.00000   17.78560   36.48235   44.09401
    3064      444        3     0.00000   18.45673   37.62088   44.77828
    3065      444        3     0.00000    4.69318   36.46342   30.93639
    3066      444        3     0.00000    5.36904   37.60484   31.60936
    3067      444        3     0.00000   17.84528   29.26106   47.88499
    3068      444        3     0.00000   18.50221   28.10650   47.21833
    3069      444        3     0.00000   17.80847   42.36716   34.76338
    3070      444        3     0.00000   18.48565   41.22837   34.09173
    3071      444        3     0.00000    4.66347   29.24213   34.75024
    3072      444        3     0.00000    5.32908   28.10203   34.06491
    3073      444        3     0.00000    8.49783   29.22137   30.97451
    3074      444        3     0.00000    7.82275   28.08836   31.66141
    3075      444        3     0.00000    8.47837   42.36795   44.08875
    3076      444        3     0.00000    7.79331   41.23678   44.76382
    3077      444        3     0.00000   23.34076   30.97293   44.09900
    3078      444        3     0.00000   24.48481   31.64827   44.75988
    3079      444        3     0.00000   10.21916   30.95926   30.95847
    3080      444        3     0.00000   11.35453   31.64222   31.62592
    3081      444        3     0.00000   23.35680   47.90470   34.78468
    3082      444        3     0.00000   24.48981   47.23673   34.09935
    3083      444        3     0.00000   10.19839   47.89918   47.90865
    3084      444        3     0.00000   11.33981   47.22490   47.23936
    3085      444        3     0.00000   10.21101   34.76627   34.76338
    3086      444        3     0.00000   11.34928   34.09541   34.08305
    3087      444        3     0.00000    2.92979   30.97004   34.76627
    3088      444        3     0.00000    1.78968   31.64432   34.09619
    3089      444        3     0.00000   16.12973   31.01000   47.89445
    3090      444        3     0.00000   14.97438   31.67508   47.24751
    3091      444        3     0.00000    2.91848   47.88472   44.08612
    3092      444        3     0.00000    1.78574   47.21859   44.77408
    3093      444        3     0.00000    2.94924   34.74288   30.93902
    3094      444        3     0.00000    1.80598   34.07595   31.61698
    3095      444        3     0.00000   16.06638   47.91154   30.95532
    3096      444        3     0.00000   14.92942   47.23778   31.62802
    3097      444        3     0.00000   17.79927   47.90602   29.23346
    3098      444        3     0.00000   18.47619   47.22910   28.09992
    3099      444        3     0.00000   17.81373   34.76443   42.35322
    3100      444        3     0.00000   18.50274   34.10093   41.22100
    3101      444        3     0.00000    8.49231   44.10084   42.35927
    3102      444        3     0.00000    7.81960   44.78065   41.22495
    3103      444        3     0.00000    8.46602   47.90023   49.63813
    3104      444        3     0.00000    7.79515   47.22385   50.77639
    3105      444        3     0.00000   17.88892   31.01946   49.58608
    3106      444        3     0.00000   18.54664   31.66719   50.74432
    3107      444        3     0.00000   17.81110   44.10663   36.48182
    3108      444        3     0.00000   18.48565   44.77513   37.62035
    3109      444        3     0.00000    2.93688   44.09900   47.90418
    3110      444        3     0.00000    1.79809   44.76961   47.22937
    3111      444        3     0.00000   16.07794   44.10400   34.75760
    3112      444        3     0.00000   14.93731   44.78065   34.08515
    3113      444        3     0.00000   16.06690   34.73026   44.06457
    3114      444        3     0.00000   14.92732   34.03048   44.71651
    3115      444        3     0.00000   23.35732   34.74708   47.90418
    3116      444        3     0.00000   24.49769   34.06649   47.23830
    3117      444        3     0.00000   23.35075   44.09900   30.96741
    3118      444        3     0.00000   24.48876   44.77802   31.63749
    3119      444        3     0.00000   10.21443   44.09217   44.09611
    3120      444        3     0.00000   11.34428   44.76829   44.78091
    3121      444        3     0.00000   21.61444   29.23530   44.11557
    3122      444        3     0.00000   20.95093   28.08678   44.78459
    3123      444        3     0.00000   21.62548   42.36006   30.95926
    3124      444        3     0.00000   20.94567   41.22837   31.63906
    3125      444        3     0.00000    4.66794   42.37136   47.90759
    3126      444        3     0.00000    5.34144   41.23941   47.23068
    3127      444        3     0.00000   21.62390   49.63340   34.77915
    3128      444        3     0.00000   20.94935   50.76851   34.09357
    3129      444        3     0.00000   21.62390   36.47840   47.89130
    3130      444        3     0.00000   20.94541   37.61562   47.21780
    3131      444        3     0.00000    4.65559   49.60211   44.07272
    3132      444        3     0.00000    5.33907   50.73065   44.73990
    3133      444        3     0.00000   21.61049   44.09269   49.64891
    3134      444        3     0.00000   20.93227   44.76672   50.78822
    3135      444        3     0.00000   21.63231   30.96084   36.49917
    3136      444        3     0.00000   20.96565   31.64275   37.63612
    3137      444        3     0.00000    4.67767   47.90129   36.49786
    3138      444        3     0.00000    5.35432   47.22700   37.63192
    3139      444        3     0.00000   21.64362   34.78862   29.21322
    3140      444        3     0.00000   20.96565   34.10066   28.08573
    3141      444        3     0.00000   21.56134   47.83925   42.42998
    3142      444        3     0.00000   20.90046   47.17811   41.27647
    3143      444        3     0.00000    4.66768   44.08481   29.22584
    3144      444        3     0.00000    5.34748   44.76172   28.09046
    3145      444        3     0.00000   17.82214   29.22820   30.94506
    3146      444        3     0.00000   18.50116   28.08915   31.62014
    3147      444        3     0.00000   17.79481   42.34954   44.10190
    3148      444        3     0.00000   18.47224   41.21706   44.78091
    3149      444        3     0.00000    8.46865   29.15722   47.86475
    3150      444        3     0.00000    7.78464   28.04235   47.17259
    3151      444        3     0.00000    8.47680   36.51153   44.11557
    3152      444        3     0.00000    7.79804   37.64848   44.78144
    3153      444        3     0.00000   17.81242   49.63681   47.91338
    3154      444        3     0.00000   18.48670   50.77666   47.23830
    3155      444        3     0.00000   17.83135   36.47709   34.76338
    3156      444        3     0.00000   18.49880   37.62219   34.09409
    3157      444        3     0.00000    2.94188   47.90707   34.77206
    3158      444        3     0.00000    1.80440   47.23331   34.09094
    3159      444        3     0.00000   16.08557   47.90050   47.91653
    3160      444        3     0.00000   14.94336   47.22227   47.24619
    3161      444        3     0.00000    2.89325   30.88434   44.06036
    3162      444        3     0.00000    1.78022   31.57335   44.76672
    3163      444        3     0.00000   23.33051   47.87631   44.11662
    3164      444        3     0.00000   24.47772   47.20965   44.77881
    3165      444        3     0.00000   10.19471   47.91443   30.95190
    3166      444        3     0.00000   11.32930   47.23936   31.63170
    3167      444        3     0.00000   10.25544   30.82072   47.90102
    3168      444        3     0.00000   11.38292   31.49527   47.19703
    3169      444        3     0.00000    9.71154   31.35384   49.09160
    3170      444        4     0.00000   10.19629   32.18953   49.57688
    3171      444        3     0.00000    9.62295   44.65631   35.91321
    3172      444        4     0.00000   10.04487   45.56087   36.33671
    3173      444        3     0.00000   16.66889   47.34346   49.07110
    3174      444        4     0.00000   16.25302   46.43626   49.49065
    3175      444        3     0.00000   16.65996   34.19293   35.90927
    3176      444        4     0.00000   16.23409   33.28995   36.33172
    3177      444        3     0.00000    3.52626   47.33662   35.91716
    3178      444        4     0.00000    3.10644   46.42706   36.33251
    3179      444        3     0.00000   16.66837   31.52524   29.79392
    3180      444        4     0.00000   16.24855   32.43138   29.37200
    3181      444        3     0.00000   16.64208   44.64159   42.94733
    3182      444        4     0.00000   16.22305   45.54773   42.52699
    3183      444        3     0.00000    3.52153   44.65552   29.80680
    3184      444        4     0.00000    3.11144   45.56666   29.39224
    3185      444        3     0.00000    9.62163   47.34977   29.79839
    3186      444        4     0.00000   10.04513   46.44546   29.38146
    3187      444        3     0.00000    9.62295   34.21107   42.98282
    3188      444        4     0.00000   10.04776   33.30808   42.56037
    3189      444        3     0.00000   22.78688   35.93372   31.51420
    3190      444        4     0.00000   23.20065   36.34802   32.42691
    3191      444        3     0.00000   22.77294   49.04665   44.66446
    3192      444        4     0.00000   23.22457   49.49381   45.54221
    3193      444        3     0.00000    9.61664   35.92583   44.69653
    3194      444        4     0.00000   10.02515   36.33960   45.61030
    3195      444        3     0.00000   22.76059   42.95390   47.34319
    3196      444        4     0.00000   23.18304   42.54223   46.43442
    3197      444        3     0.00000   22.76558   29.80180   34.20187
    3198      444        4     0.00000   23.18146   29.37804   33.29599
    3199      444        3     0.00000    9.63215   29.71295   47.31007
    3200      444        4     0.00000   10.02699   29.31048   46.38631
    3201      444        3     0.00000    3.49445   42.92919   31.50684
    3202      444        4     0.00000    3.06596   42.49912   32.40431
    3203      444        3     0.00000    3.43925   29.70007   44.58507
    3204      444        4     0.00000    2.99472   29.25107   45.46229
    3205      444        3     0.00000    3.51916   35.92636   47.34004
    3206      444        4     0.00000    3.09777   36.34907   46.43574
    3207      444        3     0.00000    3.52389   49.05848   34.21081
    3208      444        4     0.00000    3.10565   49.47882   33.30467
    3209      444        3     0.00000    5.23786   49.05401   35.92478
    3210      444        4     0.00000    6.14033   49.47593   36.34828
    3211      444        3     0.00000   18.37498   49.06479   49.06926
    3212      444        4     0.00000   19.27849   49.49013   49.48907
    3213      444        3     0.00000   18.38339   35.89928   35.91900
    3214      444        4     0.00000   19.28401   36.32304   36.34460
    3215      444        3     0.00000   21.00876   48.99933   43.00438
    3216      444        4     0.00000   20.10183   49.41836   42.58955
    3217      444        3     0.00000   21.07238   35.93188   29.79944
    3218      444        4     0.00000   20.16387   36.34959   29.38304
    3219      444        3     0.00000    7.90582   49.06084   29.78445
    3220      444        4     0.00000    7.00231   49.48145   29.35964
    3221      444        3     0.00000    5.19580   29.74318   42.91526
    3222      444        4     0.00000    6.11089   29.33519   42.50412
    3223      444        3     0.00000   18.37498   29.80101   29.78551
    3224      444        4     0.00000   19.27429   29.37436   29.35806
    3225      444        3     0.00000   21.06344   29.80706   35.92767
    3226      444        4     0.00000   20.15914   29.38882   36.35354
    3227      444        3     0.00000    7.91029   29.73556   49.01957
    3228      444        4     0.00000    6.97944   29.34834   49.41415
    3229      444        3     0.00000    5.25495   35.87510   29.78813
    3230      444        4     0.00000    6.16057   36.29229   29.36621
    3231      444        3     0.00000   18.35868   35.91795   42.94050
    3232      444        4     0.00000   19.25957   36.35117   42.52462
    3233      444        3     0.00000   21.06555   42.93734   29.80496
    3234      444        4     0.00000   20.16282   42.51463   29.37831
    3235      444        3     0.00000    7.92317   42.94996   42.93524
    3236      444        4     0.00000    7.01755   42.53382   42.51069
    3237      444        3     0.00000    7.93789   29.78997   29.81074
    3238      444        4     0.00000    7.04069   29.35938   29.38514
    3239      444        3     0.00000    5.22709   42.94681   49.06111
    3240      444        4     0.00000    6.13165   42.52383   49.48303
    3241      444        3     0.00000    5.23077   29.82257   35.90270
    3242      444        4     0.00000    6.13954   29.40564   36.31752
    3243      444        3     0.00000   18.37156   42.95049   35.90953
    3244      444        4     0.00000   19.27560   42.52988   36.33303
    3245      444        3     0.00000   21.06187   35.90454   49.04507
    3246      444        4     0.00000   20.15020   36.31884   49.45621
    3247      444        3     0.00000    7.91660   35.90270   35.92583
    3248      444        4     0.00000    7.00967   36.31857   36.34670
    3249      444        3     0.00000    9.61717   49.04796   47.34267
    3250      444        4     0.00000   10.03830   49.46594   46.43705
    3251      444        3     0.00000    9.62637   35.91900   34.20687
    3252      444        4     0.00000   10.04171   36.34565   33.30020
    3253      444        3     0.00000   16.64813   49.06058   31.52130
    3254      444        4     0.00000   16.22805   49.47856   32.42718
    3255      444        3     0.00000   16.63498   35.88404   44.64553
    3256      444        4     0.00000   16.20702   36.29334   45.55325
    3257      444        3     0.00000    3.53388   35.89455   31.49685
    3258      444        4     0.00000    3.11117   36.32278   32.39800
    3259      444        3     0.00000   16.68440   29.83887   47.34030
    3260      444        4     0.00000   16.23541   29.40091   46.45729
    3261      444        3     0.00000   16.65812   42.94970   34.19714
    3262      444        4     0.00000   16.23909   42.53119   33.29073
    3263      444        3     0.00000    3.51022   29.82205   34.19688
    3264      444        4     0.00000    3.08462   29.40196   33.29441
    3265      444        3     0.00000    9.64871   29.80680   31.52682
    3266      444        4     0.00000   10.07379   29.38698   32.43007
    3267      444        3     0.00000    9.63189   42.93971   44.65289
    3268      444        4     0.00000   10.05144   42.51227   45.55535
    3269      444        3     0.00000   22.75218   31.53181   42.95233
    3270      444        4     0.00000   23.17252   32.43349   42.52304
    3271      444        3     0.00000   22.77505   44.65815   29.81416
    3272      444        4     0.00000   23.19618   45.56219   29.39224
    3273      444        3     0.00000    9.63557   31.51761   29.80548
    3274      444        4     0.00000   10.05013   32.42481   29.38567
    3275      444        3     0.00000   22.77978   47.34425   35.93950
    3276      444        4     0.00000   23.20538   46.44099   36.35932
    3277      444        3     0.00000   22.77952   34.19451   49.05979
    3278      444        4     0.00000   23.19881   33.29047   49.48408
    3279      444        3     0.00000    9.63872   34.19635   35.91479
    3280      444        4     0.00000   10.06511   33.29152   36.32988
    3281      444        3     0.00000    3.51022   31.53207   35.91663
    3282      444        4     0.00000    3.08988   32.43743   36.33855
    3283      444        3     0.00000    3.51522   44.66314   49.05559
    3284      444        4     0.00000    3.09645   45.56929   49.47514
    3285      444        3     0.00000    3.49103   47.31323   42.93419
    3286      444        4     0.00000    3.06832   46.40682   42.51936
    3287      444        3     0.00000    3.52994   34.17112   29.79129
    3288      444        4     0.00000    3.10408   33.26681   29.37463
    3289      444        3     0.00000   16.64550   47.34609   29.80706
    3290      444        4     0.00000   16.22621   46.44231   29.38199
    3291      444        3     0.00000   16.66469   34.18347   42.91841
    3292      444        4     0.00000   16.25933   33.27417   42.49281
    3293      444        3     0.00000    9.64266   44.65867   42.94286
    3294      444        4     0.00000   10.06432   45.56561   42.52699
    3295      444        3     0.00000    9.61454   47.33583   49.05716
    3296      444        4     0.00000   10.03462   46.43100   49.47830
    3297      444        3     0.00000   16.74329   31.59438   49.01142
    3298      444        4     0.00000   16.33846   32.51156   49.42204
    3299      444        3     0.00000   16.65891   44.66840   35.90717
    3300      444        4     0.00000   16.23698   45.57165   36.33224
    3301      444        3     0.00000    3.51864   42.95049   47.34214
    3302      444        4     0.00000    3.10092   42.53093   46.43495
    3303      444        3     0.00000    3.50497   49.03351   44.64185
    3304      444        4     0.00000    3.09172   49.45753   45.54904
    3305      444        3     0.00000   22.77584   35.89508   47.33110
    3306      444        4     0.00000   23.19513   36.31069   46.42285
    3307      444        3     0.00000   22.77505   49.05322   34.21870
    3308      444        4     0.00000   23.18777   49.46752   33.30624
    3309      444        3     0.00000   22.77373   42.94391   31.52524
    3310      444        4     0.00000   23.19381   42.52436   32.42875
    3311      444        3     0.00000   22.76874   29.81915   44.66893
    3312      444        4     0.00000   23.19907   29.39828   45.56955
    3313      444        3     0.00000   21.03505   29.82047   42.97572
    3314      444        4     0.00000   20.12707   29.39934   42.56221
    3315      444        3     0.00000   18.43360   29.85648   49.01484
    3316      444        4     0.00000   19.33948   29.43377   49.43098
    3317      444        3     0.00000   21.06265   49.05716   35.93477
    3318      444        4     0.00000   20.15888   49.47909   36.35590
    3319      444        3     0.00000    7.90372   49.05270   49.05927
    3320      444        4     0.00000    7.00047   49.47567   49.48277
    3321      444        3     0.00000    5.21105   49.01905   42.92157
    3322      444        4     0.00000    6.11641   49.43597   42.49860
    3323      444        3     0.00000   18.36630   49.05585   29.81311
    3324      444        4     0.00000   19.27271   49.47725   29.39119
    3325      444        3     0.00000   21.04925   42.94234   49.06137
    3326      444        4     0.00000   20.14231   42.51726   49.47593
    3327      444        3     0.00000    7.90977   42.93997   35.90507
    3328      444        4     0.00000    7.00441   42.52068   36.32593
    3329      444        3     0.00000    5.24049   35.91742   49.04954
    3330      444        4     0.00000    6.14453   36.33987   49.47015
    3331      444        3     0.00000    7.91976   35.93477   42.96047
    3332      444        4     0.00000    7.02360   36.36326   42.52699
    3333      444        3     0.00000    5.21894   42.92446   29.80075
    3334      444        4     0.00000    6.12429   42.50201   29.38120
    3335      444        3     0.00000   18.34764   42.91789   42.94050
    3336      444        4     0.00000   19.24485   42.48913   42.51200
    3337      444        3     0.00000   16.67731   29.81652   31.51472
    3338      444        4     0.00000   16.26038   29.40170   32.42323
    3339      444        3     0.00000   16.64918   42.93471   44.66840
    3340      444        4     0.00000   16.23173   42.51752   45.57638
    3341      444        3     0.00000    9.62216   42.94838   34.19215
    3342      444        4     0.00000   10.04329   42.53040   33.28705
    3343      444        3     0.00000    9.60875   49.06453   31.51052
    3344      444        4     0.00000   10.01963   49.48198   32.42087
    3345      444        3     0.00000   16.66364   49.05086   47.34898
    3346      444        4     0.00000   16.24250   49.46699   46.44073
    3347      444        3     0.00000   16.68808   35.89455   34.18636
    3348      444        4     0.00000   16.27799   36.30780   33.27365
    3349      444        3     0.00000    3.52547   34.20398   49.04560
    3350      444        4     0.00000    3.09908   33.30335   49.46962
    3351      444        3     0.00000    3.50023   31.47477   42.93235
    3352      444        4     0.00000    3.10171   32.40325   42.53698
    3353      444        3     0.00000   22.72300   47.28773   42.99465
    3354      444        4     0.00000   23.13519   46.37632   42.58114
    3355      444        3     0.00000   22.80528   34.23868   29.78288
    3356      444        4     0.00000   23.23430   33.34226   29.35386
    3357      444        3     0.00000   22.77794   31.52156   35.91032
    3358      444        4     0.00000   23.20144   32.42639   36.32751
    3359      444        3     0.00000   22.76348   44.65552   49.07294
    3360      444        4     0.00000   23.18067   45.55825   49.49854
    3361      289        5     0.00000    9.82484   39.78805   38.44185
    3362      289        6     0.00000    9.24677   40.51885   38.10641
    3363      289        6     0.00000    9.83325   39.90871   39.42475
    3364      290        5     0.00000   15.41890   29.10439   36.34539
    3365      290        6     0.00000   15.35213   28.93167   37.31804
    3366      290        6     0.00000   16.17600   29.73687   36.25653
    3367      291        5     0.00000   24.01768   49.72409   50.53638
    3368      291        6     0.00000   24.59864   48.92757   50.62629
    3369      291        6     0.00000   23.12073   49.35474   50.33739
    3370      292        5     0.00000   11.92866   51.19621   27.92380
    3371      292        6     0.00000   12.07272   51.09500   26.94930
    3372      292        6     0.00000   12.42024   50.43754   28.32837
    3373      293        5     0.00000   22.27400   36.02704   42.93366
    3374      293        6     0.00000   21.82053   36.72262   43.47283
    3375      293        6     0.00000   22.36627   35.25707   43.54906
    3376      294        5     0.00000    0.68375   47.49750   38.52649
    3377      294        6     0.00000    1.46818   47.72358   37.96656
    3378      294        6     0.00000    0.47713   46.55745   38.29490
    3379      295        5     0.00000   13.18654   28.66748   42.60979
    3380      295        6     0.00000   13.37791   27.97374   41.92973
    3381      295        6     0.00000   13.64132   29.47951   42.27147
    3382      296        5     0.00000    5.12246   27.18563   50.11341
    3383      296        6     0.00000    5.85300   27.42590   50.73722
    3384      296        6     0.00000    4.87115   28.04078   49.68177
    3385      297        5     0.00000    2.61538   42.51831   26.57155
    3386      297        6     0.00000    3.54597   42.85191   26.51608
    3387      297        6     0.00000    2.06255   43.33639   26.64910
    3388      298        5     0.00000   14.62816   38.14558   34.94556
    3389      298        6     0.00000   15.37842   38.11956   35.59145
    3390      298        6     0.00000   13.81429   38.14006   35.50864
    3391      299        5     0.00000   22.47326   42.47757   41.96075
    3392      299        6     0.00000   21.69830   42.95364   42.35007
    3393      299        6     0.00000   22.24535   42.38004   41.00203
    3394      300        5     0.00000   11.03067   52.10866   33.66323
    3395      300        6     0.00000   11.66946   52.84657   33.49736
    3396      300        6     0.00000   11.45364   51.31714   33.24526
    3397      301        5     0.00000   13.90157   41.96758   50.19359
    3398      301        6     0.00000   13.37712   42.06853   49.35974
    3399      301        6     0.00000   13.88790   42.86820   50.60447
    3400      302        5     0.00000   24.27872   40.83589   51.62628
    3401      302        6     0.00000   23.71195   41.64634   51.67833
    3402      302        6     0.00000   24.37414   40.66107   50.65626
    3403      303        5     0.00000    0.29837   52.61549   37.27282
    3404      303        6     0.00000   -0.61067   52.45908   36.91294
    3405      303        6     0.00000    0.78680   51.77507   37.08513
    3406      304        5     0.00000    1.31255   51.94358   42.04723
    3407      304        6     0.00000    1.78784   51.15415   42.40974
    3408      304        6     0.00000    1.54152   51.95199   41.08404
    3409      305        5     0.00000   26.18249   27.12885   45.84846
    3410      305        6     0.00000   25.98585   28.01922   45.46203
    3411      305        6     0.00000   26.55656   27.32364   46.74462
    3412      306        5     0.00000   25.03528   44.30852   38.64716
    3413      306        6     0.00000   24.22377   43.97361   39.10457
    3414      306        6     0.00000   24.69774   44.72466   37.81436
    3415      307        5     0.00000   14.43758   42.38740   30.64275
    3416      307        6     0.00000   15.11370   42.93498   30.16983
    3417      307        6     0.00000   14.60161   41.46285   30.32888
    3418      308        5     0.00000   23.18067   28.06470   40.91580
    3419      308        6     0.00000   23.14860   27.84125   41.87952
    3420      308        6     0.00000   22.51979   28.79103   40.80040
    3421      309        5     0.00000   13.08769   34.08568   52.26061
    3422      309        6     0.00000   12.35689   33.82622   51.64521
    3423      309        6     0.00000   12.88133   35.02127   52.51087
    3424      310        5     0.00000    9.93078   29.88619   35.45239
    3425      310        6     0.00000    9.01990   30.06021   35.79939
    3426      310        6     0.00000   10.44445   30.70059   35.68346
    3427      311        5     0.00000    7.92081   27.49635   40.22706
    3428      311        6     0.00000    8.31276   28.39619   40.35850
    3429      311        6     0.00000    8.65555   26.87123   40.44998
    3430      312        5     0.00000   24.64280   38.59327   29.15276
    3431      312        6     0.00000   24.87598   38.52623   30.11253
    3432      312        6     0.00000   23.68435   38.84274   29.14697
    3433      313        5     0.00000   19.14548   52.58500   38.30331
    3434      313        6     0.00000   19.37523   51.65993   38.03412
    3435      313        6     0.00000   18.18834   52.54031   38.55383
    3436      314        5     0.00000    0.58491   34.22606   38.26072
    3437      314        6     0.00000    0.37723   34.09909   37.30095
    3438      314        6     0.00000    1.55992   34.39798   38.28359
    3439      315        5     0.00000    8.64267   50.16467   39.41949
    3440      315        6     0.00000    8.78620   50.33502   40.38426
    3441      315        6     0.00000    8.22128   50.99432   39.08064
    3442      316        5     0.00000   16.89313   39.41581   30.44402
    3443      316        6     0.00000   16.34214   39.32512   29.62962
    3444      316        6     0.00000   17.26405   40.33116   30.38303
    3445      317        5     0.00000   15.99750   50.31504   26.44720
    3446      317        6     0.00000   16.91232   49.98986   26.64331
    3447      317        6     0.00000   15.48568   50.13103   27.27501
    3448      318        5     0.00000    4.15533   43.46783   35.21843
    3449      318        6     0.00000    3.48499   42.79355   35.49445
    3450      318        6     0.00000    4.60170   43.06405   34.43268
    3451      319        5     0.00000   13.92602   51.28559   40.78068
    3452      319        6     0.00000   12.94390   51.37181   40.87295
    3453      319        6     0.00000   14.25356   51.17124   41.70786
    3454      320        5     0.00000   11.36794   43.08403   39.71418
    3455      320        6     0.00000   12.19706   42.56537   39.55803
    3456      320        6     0.00000   10.94339   42.64581   40.49414
    3457      321        5     0.00000    1.63379   39.91318   46.67364
    3458      321        6     0.00000    1.05940   39.18948   47.03010
    3459      321        6     0.00000    1.22291   40.15135   45.80456
    3460      322        5     0.00000    8.11534   34.68636   30.77078
    3461      322        6     0.00000    8.91975   35.13483   30.40695
    3462      322        6     0.00000    8.41108   34.30755   31.63644
    3463      323        5     0.00000    4.48787   40.61743   39.77727
    3464      323        6     0.00000    4.39087   39.67344   40.05961
    3465      323        6     0.00000    5.46525   40.75098   39.69000
    3466      324        5     0.00000   12.56272   36.16479   41.31696
    3467      324        6     0.00000   12.97308   36.98708   40.94892
    3468      324        6     0.00000   12.55221   35.53125   40.55592
    3469      325        5     0.00000   13.49200   44.63685   27.39988
    3470      325        6     0.00000   14.23306   45.29037   27.33521
    3471      325        6     0.00000   13.35583   44.51225   28.37253
    3472      326        5     0.00000   10.01175   42.59192   29.48714
    3473      326        6     0.00000   10.89371   42.88950   29.14881
    3474      326        6     0.00000    9.35429   43.09717   28.94561
    3475      327        5     0.00000    4.29071   29.91668   29.74239
    3476      327        6     0.00000    4.54781   29.11069   29.22741
    3477      327        6     0.00000    3.30202   29.88592   29.77420
    3478      328        5     0.00000   25.32708   50.96751   31.99316
    3479      328        6     0.00000   25.22666   51.86024   32.40983
    3480      328        6     0.00000   26.16172   50.60368   32.38249
    3481      329        5     0.00000   12.71756   37.47419   31.53181
    3482      329        6     0.00000   12.66078   36.78072   30.82729
    3483      329        6     0.00000   12.89106   38.31593   31.03996
    3484      330        5     0.00000   26.01635   37.73602   49.93387
    3485      330        6     0.00000   26.63359   38.45236   50.22855
    3486      330        6     0.00000   26.48979   36.89454   50.15363
    3487      331        5     0.00000   14.58926   38.50494   38.53701
    3488      331        6     0.00000   14.24988   37.80253   37.92766
    3489      331        6     0.00000   14.61318   38.06856   39.42502
    3490      332        5     0.00000   24.08760   39.11745   36.45685
    3491      332        6     0.00000   25.02187   38.95052   36.73971
    3492      332        6     0.00000   23.53582   38.66161   37.14086
    3493      333        5     0.00000   11.57719   48.53430   51.23512
    3494      333        6     0.00000   10.91500   49.23960   51.44595
    3495      333        6     0.00000   11.42656   47.83898   51.92360
    3496      334        5     0.00000    1.49841   28.65302   51.01614
    3497      334        6     0.00000    0.67060   29.07337   51.36104
    3498      334        6     0.00000    2.21554   29.29970   51.23538
    3499      335        5     0.00000    2.05677   43.41210   38.57697
    3500      335        6     0.00000    1.40220   42.68813   38.41109
    3501      335        6     0.00000    2.59751   43.45232   37.74864
    3502      336        5     0.00000   23.91673   35.47210   40.14872
    3503      336        6     0.00000   24.22745   36.21474   39.57170
    3504      336        6     0.00000   23.03714   35.21580   39.77307
    3505      337        5     0.00000   26.16882   32.96371   26.97270
    3506      337        6     0.00000   25.70799   33.63432   27.53763
    3507      337        6     0.00000   26.34258   33.43479   26.11913
    3508      338        5     0.00000   16.88735   38.19763   26.83837
    3509      338        6     0.00000   16.65706   37.34406   26.39226
    3510      338        6     0.00000   16.08031   38.76046   26.72822
    3511      339        5     0.00000    0.95977   28.14961   31.05994
    3512      339        6     0.00000    1.88905   28.31995   31.35516
    3513      339        6     0.00000    0.40247   28.70928   31.65720
    3514      340        5     0.00000   13.43391   27.77422   52.51192
    3515      340        6     0.00000   13.80535   28.62411   52.16834
    3516      340        6     0.00000   13.59584   27.12254   51.78453
    3517      341        5     0.00000   25.72166   41.83246   36.50785
    3518      341        6     0.00000   24.87493   42.02410   36.98418
    3519      341        6     0.00000   26.12728   42.72204   36.35196
    3520      342        5     0.00000   14.62580   49.58003   43.88607
    3521      342        6     0.00000   13.85031   49.72172   44.48517
    3522      342        6     0.00000   14.43837   48.71989   43.43287
    3523      343        5     0.00000    4.39981   36.95711   39.41371
    3524      343        6     0.00000    3.57410   36.63350   38.97313
    3525      343        6     0.00000    5.02835   37.12956   38.66819
    3526      344        5     0.00000   16.56585   28.29998   42.24728
    3527      344        6     0.00000   16.51143   27.31655   42.35033
    3528      344        6     0.00000   17.32977   28.56811   42.81747
    3529      345        5     0.00000    0.83701   47.59293   28.12201
    3530      345        6     0.00000    0.34306   48.02852   27.38253
    3531      345        6     0.00000    0.16430   47.01880   28.56759
    3532      346        5     0.00000   24.30027   46.36791   26.75635
    3533      346        6     0.00000   25.15962   46.03038   26.39910
    3534      346        6     0.00000   24.13071   47.20229   26.25110
    3535      347        5     0.00000   21.73352   51.02455   27.95455
    3536      347        6     0.00000   21.63678   51.90888   27.51949
    3537      347        6     0.00000   21.10287   50.43728   27.46665
    3538      348        5     0.00000   15.02275   48.32584   39.92843
    3539      348        6     0.00000   15.13815   47.50066   39.39373
    3540      348        6     0.00000   14.58847   48.02274   40.76491
    3541      349        5     0.00000   12.50095   40.18263   44.02750
    3542      349        6     0.00000   13.48385   40.06118   44.04801
    3543      349        6     0.00000   12.31115   40.79987   44.77828
    3544      350        5     0.00000    4.10196   37.96367   27.79078
    3545      350        6     0.00000    4.32383   38.13112   26.84073
    3546      350        6     0.00000    3.13641   37.74364   27.78736
    3547      351        5     0.00000   21.25061   40.33247   26.66066
    3548      351        6     0.00000   20.33474   40.57459   26.37228
    3549      351        6     0.00000   21.25981   39.34221   26.65830
    3550      352        5     0.00000   15.26144   42.68393   38.42949
    3551      352        6     0.00000   15.73015   43.50490   38.72392
    3552      352        6     0.00000   14.59715   43.00096   37.76704
    3553      353        5     0.00000   18.57792   28.18194   52.49930
    3554      353        6     0.00000   18.14391   28.38567   51.63312
    3555      353        6     0.00000   17.87104   27.73873   53.03242
    3556      354        5     0.00000    3.28572   50.50589   49.00459
    3557      354        6     0.00000    2.76470   49.82556   49.50117
    3558      354        6     0.00000    4.20738   50.41835   49.35580
    3559      355        5     0.00000   10.80590   51.90835   38.08644
    3560      355        6     0.00000   10.61006   52.87049   37.95762
    3561      355        6     0.00000   10.73361   51.51666   37.18003
    3562      356        5     0.00000   19.37024   38.99757   50.53481
    3563      356        6     0.00000   19.87523   38.33380   51.06819
    3564      356        6     0.00000   18.67151   38.46603   50.07714
    3565      357        5     0.00000    1.73816   36.69081   35.56753
    3566      357        6     0.00000    1.22712   36.51757   36.39796
    3567      357        6     0.00000    1.15667   37.29464   35.04046
    3568      358        5     0.00000    1.97974   35.59487   41.55512
    3569      358        6     0.00000    1.90798   34.97316   42.32273
    3570      358        6     0.00000    1.43874   35.17163   40.84220
    3571      359        5     0.00000   23.06605   49.42099   40.32406
    3572      359        6     0.00000   22.57999   50.05610   40.90818
    3573      359        6     0.00000   22.37731   49.08608   39.69709
    3574      360        5     0.00000   15.90655   29.91432   51.55925
    3575      360        6     0.00000   15.67758   29.49713   50.68991
    3576      360        6     0.00000   15.36528   30.74238   51.58711
    3577      361        5     0.00000   11.03435   26.51082   30.51315
    3578      361        6     0.00000   10.39450   25.82707   30.83439
    3579      361        6     0.00000   10.47363   27.16276   30.02288
    3580      362        5     0.00000   18.07977   39.38532   40.11218
    3581      362        6     0.00000   19.01456   39.13716   40.32485
    3582      362        6     0.00000   17.59449   38.52255   40.08248
    3583      363        5     0.00000   14.10451   49.77693   37.39165
    3584      363        6     0.00000   13.13948   49.89075   37.20158
    3585      363        6     0.00000   14.32638   50.52245   38.00415
    3586      364        5     0.00000   24.52240   51.76245   43.19417
    3587      364        6     0.00000   24.16173   52.58579   43.60979
    3588      364        6     0.00000   25.28239   51.50509   43.77435
    3589      365        5     0.00000   10.63319   35.02626   49.11079
    3590      365        6     0.00000   10.01569   34.41007   48.64260
    3591      365        6     0.00000   11.28592   34.43321   49.56084
    3592      366        5     0.00000    1.75577   28.95192   27.84651
    3593      366        6     0.00000    1.47370   29.84202   27.51581
    3594      366        6     0.00000    0.99105   28.35623   27.64646
    3595      367        5     0.00000   10.42894   29.10885   51.58448
    3596      367        6     0.00000   10.96048   28.36464   51.20462
    3597      367        6     0.00000   10.18104   28.80102   52.49247
    3598      368        5     0.00000   13.21808   37.37088   46.16786
    3599      368        6     0.00000   13.49568   38.30331   46.35056
    3600      368        6     0.00000   12.24674   37.35957   46.35897
    3601      369        5     0.00000    8.02754   37.48602   26.64279
    3602      369        6     0.00000    8.74178   36.98681   27.11360
    3603      369        6     0.00000    7.42870   37.80305   27.36492
    3604      370        5     0.00000   20.76639   44.94784   44.40210
    3605      370        6     0.00000   20.97617   45.53748   45.16918
    3606      370        6     0.00000   21.58000   44.39553   44.28828
    3607      371        5     0.00000   24.85311   41.59797   28.56916
    3608      371        6     0.00000   24.94406   42.44497   28.06470
    3609      371        6     0.00000   24.81630   41.87557   29.51868
    3610      372        5     0.00000    4.68582   52.50535   36.99943
    3611      372        6     0.00000    5.65978   52.34604   37.08171
    3612      372        6     0.00000    4.26863   51.71408   37.42372
    3613      373        5     0.00000   14.67522   51.39968   48.43414
    3614      373        6     0.00000   14.12423   52.21566   48.53850
    3615      373        6     0.00000   14.52512   50.88864   49.26878
    3616      374        5     0.00000   10.34692   40.10193   47.89682
    3617      374        6     0.00000   10.53908   40.13085   48.86763
    3618      374        6     0.00000   10.98177   39.43316   47.53641
    3619      375        5     0.00000   21.10077   31.99027   31.13250
    3620      375        6     0.00000   20.25772   31.73370   31.58281
    3621      375        6     0.00000   21.20803   31.32729   30.40485
    3622      376        5     0.00000   14.42286   37.33250   28.78315
    3623      376        6     0.00000   14.43521   38.30962   28.62463
    3624      376        6     0.00000   15.27064   37.14428   29.25896
    3625      377        5     0.00000    5.90978   31.01762   46.71623
    3626      377        6     0.00000    5.16662   31.39511   46.18311
    3627      377        6     0.00000    5.69343   30.05522   46.79378
    3628      378        5     0.00000   21.16123   37.26809   38.45447
    3629      378        6     0.00000   21.79845   37.60563   39.13322
    3630      378        6     0.00000   21.59551   36.45711   38.08828
    3631      379        5     0.00000   21.69146   51.96198   50.52561
    3632      379        6     0.00000   22.41753   52.61628   50.36578
    3633      379        6     0.00000   21.69015   51.39074   49.71673
    3634      380        5     0.00000   14.27459   51.86498   31.89642
    3635      380        6     0.00000   14.15656   52.02270   30.92614
    3636      380        6     0.00000   13.73516   51.05610   32.08359
    3637      381        5     0.00000   16.03115   43.36925   52.41544
    3638      381        6     0.00000   16.51853   42.72809   51.83974
    3639      381        6     0.00000   15.82479   44.13160   51.81792
    3640      382        5     0.00000   13.83558   28.83309   29.50344
    3641      382        6     0.00000   13.99436   28.63567   30.46058
    3642      382        6     0.00000   13.83926   29.82178   29.44902
    3643      383        5     0.00000   17.44859   49.92624   42.97888
    3644      383        6     0.00000   17.58398   50.90310   42.89055
    3645      383        6     0.00000   17.61342   49.57004   42.07010
    3646      384        5     0.00000    6.68843   44.71309   32.39432
    3647      384        6     0.00000    6.89085   43.75174   32.27260
    3648      384        6     0.00000    5.77256   44.72912   32.77050
    3649      444        1     0.00000   34.57621    6.35747   24.93591
    3650      444        1     0.00000   34.55150   19.55636   11.82035
    3651      444        1     0.00000   47.72936    6.44527   11.82403
    3652      444        1     0.00000   47.70045   19.55977   24.98691
    3653      444        1     0.00000   44.31614   19.86971   24.98271
    3654      444        1     0.00000   44.29485    6.68764   11.81405
    3655      444        1     0.00000   31.16667   19.84947   11.81536
    3656      444        1     0.00000   31.17771    6.69053   24.93512
    3657      444        1     0.00000   44.31167    6.43659    1.30940
    3658      444        1     0.00000   44.27829   19.54795   14.46229
    3659      444        1     0.00000   31.17719    6.40768   14.47570
    3660      444        1     0.00000   31.16115   19.56083    1.32202
    3661      444        1     0.00000   34.56806   19.84973    1.32412
    3662      444        1     0.00000   34.54914    6.72366   14.48858
    3663      444        1     0.00000   47.67652   19.81450   14.49725
    3664      444        1     0.00000   47.74014    6.72944    1.31939
    3665      444        1     0.00000   51.26035    8.29594    6.43081
    3666      444        1     0.00000   51.25273   21.40887   19.56871
    3667      444        1     0.00000   38.09064    8.26124   19.64547
    3668      444        1     0.00000   38.09380   21.42622    6.43344
    3669      444        1     0.00000   51.25273   18.01562   19.88075
    3670      444        1     0.00000   51.24458    4.86799    6.69763
    3671      444        1     0.00000   38.10063   18.01589    6.70657
    3672      444        1     0.00000   38.12245    4.75390   19.79584
    3673      444        1     0.00000   27.60492   18.01773    6.42213
    3674      444        1     0.00000   27.60860    4.82278   19.58159
    3675      444        1     0.00000   40.75150   18.00327   19.58659
    3676      444        1     0.00000   40.76123    4.87903    6.42345
    3677      444        1     0.00000   27.62727    8.27543   19.82686
    3678      444        1     0.00000   27.60992   21.43621    6.71892
    3679      444        1     0.00000   40.75965    8.29226    6.70972
    3680      444        1     0.00000   40.74861   21.40256   19.86997
    3681      444        1     0.00000   32.73343   24.96588    8.29962
    3682      444        1     0.00000   32.71450   11.83823   21.41465
    3683      444        1     0.00000   45.86450   24.96352   21.42516
    3684      444        1     0.00000   45.87370   11.82035    8.27964
    3685      444        1     0.00000   46.14131   24.94932   18.02824
    3686      444        1     0.00000   46.14788   11.81720    4.87930
    3687      444        1     0.00000   32.96844   24.96562    4.84749
    3688      444        1     0.00000   32.99789   11.83324   18.01089
    3689      444        1     0.00000   32.67744    1.26077   17.96594
    3690      444        1     0.00000   32.69847   14.44546    4.87351
    3691      444        1     0.00000   45.87712    1.32149    4.85564
    3692      444        1     0.00000   45.84531   14.44783   18.01694
    3693      444        1     0.00000   46.13369    1.32176    8.28936
    3694      444        1     0.00000   46.13080   14.46492   21.41439
    3695      444        1     0.00000   32.98579    1.27943   21.35498
    3696      444        1     0.00000   33.00420   14.45545    8.26018
    3697      444        1     0.00000   32.72265    8.23495    1.28101
    3698      444        1     0.00000   32.69190   21.37785   14.45624
    3699      444        1     0.00000   45.88080    8.29278   14.46203
    3700      444        1     0.00000   45.85635   21.41307    1.34331
    3701      444        1     0.00000   46.15498   18.02114    1.33043
    3702      444        1     0.00000   46.12896    4.85669   14.46807
    3703      444        1     0.00000   33.02181   18.01299   14.45782
    3704      444        1     0.00000   33.01629    4.84197    1.31492
    3705      444        1     0.00000   32.71766   18.00143   24.96614
    3706      444        1     0.00000   32.70241    4.88298   11.83061
    3707      444        1     0.00000   45.85766   18.00169   11.80984
    3708      444        1     0.00000   45.91865    4.89612   24.93644
    3709      444        1     0.00000   46.16576    8.29094   24.97692
    3710      444        1     0.00000   46.14657   21.41176   11.85164
    3711      444        1     0.00000   33.02812    8.25966   11.83718
    3712      444        1     0.00000   32.99526   21.40650   24.96982
    3713      444        1     0.00000   34.54467   24.92803   19.83816
    3714      444        1     0.00000   34.54835   11.81773    6.73049
    3715      444        1     0.00000   47.71359   24.95431    6.71419
    3716      444        1     0.00000   47.70123   11.81063   19.84211
    3717      444        1     0.00000   44.29091   24.96693    6.44264
    3718      444        1     0.00000   44.26541   11.81273   19.57607
    3719      444        1     0.00000   31.16063   24.92330   19.53980
    3720      444        1     0.00000   31.17692   11.79485    6.40768
    3721      444        1     0.00000   44.29695    1.32254   19.85946
    3722      444        1     0.00000   44.29248   14.45598    6.72471
    3723      444        1     0.00000   31.13302    1.33122    6.69421
    3724      444        1     0.00000   31.14801   14.47859   19.85446
    3725      444        1     0.00000   34.58226    1.32123    6.46367
    3726      444        1     0.00000   34.54966   14.47123   19.56635
    3727      444        1     0.00000   47.72095    1.31334   19.57897
    3728      444        1     0.00000   47.70886   14.46571    6.44132
    3729      444        1     0.00000   51.25588    6.44527   17.99170
    3730      444        1     0.00000   51.24379   19.58633    4.87088
    3731      444        1     0.00000   38.11246    6.44658    4.86195
    3732      444        1     0.00000   38.11193   19.56740   18.02036
    3733      444        1     0.00000   51.26246   19.85657    8.26754
    3734      444        1     0.00000   51.27008    6.69527   21.43384
    3735      444        1     0.00000   38.10484   19.85183   21.43410
    3736      444        1     0.00000   38.12008    6.71919    8.26308
    3737      444        1     0.00000   27.60124    6.44632    8.28227
    3738      444        1     0.00000   27.61176   19.57108   21.41570
    3739      444        1     0.00000   40.77385    6.47050   21.43673
    3740      444        1     0.00000   40.74546   19.57975    8.27491
    3741      444        1     0.00000   27.59099   19.84290   18.01904
    3742      444        1     0.00000   27.60966    6.70052    4.85748
    3743      444        1     0.00000   40.73941   19.86235    4.86352
    3744      444        1     0.00000   40.74072    6.65399   17.93991
    3745      444        1     0.00000   44.29353   19.85394    1.33043
    3746      444        1     0.00000   44.31877    6.72628   14.45230
    3747      444        1     0.00000   31.13066   19.81030   14.45335
    3748      444        1     0.00000   31.17614    6.65846    1.31650
    3749      444        1     0.00000   34.58541    6.40163    1.29468
    3750      444        1     0.00000   34.57910   19.58317   14.45966
    3751      444        1     0.00000   47.69282    6.42029   14.46807
    3752      444        1     0.00000   47.72095   19.58081    1.33385
    3753      444        1     0.00000   34.56281   19.84605   24.96010
    3754      444        1     0.00000   34.59225    6.69527   11.83613
    3755      444        1     0.00000   47.71674   19.85078   11.84217
    3756      444        1     0.00000   47.73225    6.72997   24.97508
    3757      444        1     0.00000   44.33980    6.44632   24.95931
    3758      444        1     0.00000   44.30458   19.57318   11.81957
    3759      444        1     0.00000   31.14722    6.45289   11.82535
    3760      444        1     0.00000   31.15510   19.56556   24.97166
    3761      444        1     0.00000   27.60151   18.00195   19.85841
    3762      444        1     0.00000   27.59730    4.87798    6.72313
    3763      444        1     0.00000   40.74440   18.01904    6.70999
    3764      444        1     0.00000   40.77464    4.89638   19.88417
    3765      444        1     0.00000   27.61596    8.27044    6.41477
    3766      444        1     0.00000   27.60414   21.41360   19.57607
    3767      444        1     0.00000   40.73626    8.19998   19.52087
    3768      444        1     0.00000   40.73994   21.42516    6.42818
    3769      444        1     0.00000   51.26062    8.24835   19.85998
    3770      444        1     0.00000   51.25036   21.43857    6.72865
    3771      444        1     0.00000   38.11167    8.28884    6.70972
    3772      444        1     0.00000   38.10904   21.40781   19.86261
    3773      444        1     0.00000   51.26430   18.01168    6.43344
    3774      444        1     0.00000   51.25194    4.88271   19.55715
    3775      444        1     0.00000   38.10221   18.00590   19.58475
    3776      444        1     0.00000   38.12666    4.87877    6.42161
    3777      444        1     0.00000   46.15051    1.32254   18.02036
    3778      444        1     0.00000   46.14394   14.46492    4.87273
    3779      444        1     0.00000   33.02628    1.32307    4.89297
    3780      444        1     0.00000   32.99131   14.47754   17.99801
    3781      444        1     0.00000   32.70294    1.33148    8.24757
    3782      444        1     0.00000   32.71792   14.47149   21.41412
    3783      444        1     0.00000   45.88159    1.34463   21.39704
    3784      444        1     0.00000   45.86292   14.46229    8.27333
    3785      444        1     0.00000   46.15051   24.96404    8.27727
    3786      444        1     0.00000   46.14709   11.80590   21.41570
    3787      444        1     0.00000   32.97922   24.94433   21.40072
    3788      444        1     0.00000   32.98317   11.80984    8.29226
    3789      444        1     0.00000   32.71240   24.91488   17.96541
    3790      444        1     0.00000   32.74263   11.80248    4.84617
    3791      444        1     0.00000   45.85346   24.95957    4.87930
    3792      444        1     0.00000   45.83637   11.80984   18.02246
    3793      444        1     0.00000   46.13027   18.00642   24.97692
    3794      444        1     0.00000   46.16786    4.87877   11.82745
    3795      444        1     0.00000   32.99237   17.98723   11.81273
    3796      444        1     0.00000   33.02733    4.78361   24.96352
    3797      444        1     0.00000   32.75972    8.23731   24.92540
    3798      444        1     0.00000   32.72949   21.41491   11.82456
    3799      444        1     0.00000   45.85372    8.25571   11.81983
    3800      444        1     0.00000   45.88106   21.43279   24.97166
    3801      444        1     0.00000   46.15498    8.27280    1.32885
    3802      444        1     0.00000   46.11502   21.37811   14.49646
    3803      444        1     0.00000   32.99237    8.29120   14.48095
    3804      444        1     0.00000   32.99552   21.40571    1.31571
    3805      444        1     0.00000   32.72134   17.99354    1.32254
    3806      444        1     0.00000   32.74079    4.84302   14.47859
    3807      444        1     0.00000   45.84215   17.98013   14.46281
    3808      444        1     0.00000   45.87186    4.87036    1.31308
    3809      444        1     0.00000   44.31509    1.32281    6.42082
    3810      444        1     0.00000   44.28617   14.45861   19.58817
    3811      444        1     0.00000   31.12146    1.25814   19.53690
    3812      444        1     0.00000   31.13302   14.44231    6.43528
    3813      444        1     0.00000   34.54651    1.28416   19.79216
    3814      444        1     0.00000   34.56570   14.46150    6.69474
    3815      444        1     0.00000   47.70071    1.31545    6.73075
    3816      444        1     0.00000   47.69414   14.45256   19.85183
    3817      444        1     0.00000   34.53757   24.97377    6.40032
    3818      444        1     0.00000   34.55728   11.84086   19.58081
    3819      444        1     0.00000   47.72174   24.97272   19.56871
    3820      444        1     0.00000   47.71438   11.82929    6.43291
    3821      444        1     0.00000   44.29485   24.97114   19.86603
    3822      444        1     0.00000   44.30089   11.81089    6.71945
    3823      444        1     0.00000   31.16983   24.97009    6.73759
    3824      444        1     0.00000   31.14669   11.83140   19.85473
    3825      444        1     0.00000   27.61702   19.85026    8.26938
    3826      444        1     0.00000   27.62438    6.71498   21.39309
    3827      444        1     0.00000   40.75255   19.84999   21.44067
    3828      444        1     0.00000   40.75913    6.71367    8.26045
    3829      444        1     0.00000   27.59546    6.37797   18.01063
    3830      444        1     0.00000   27.61465   19.58922    4.87220
    3831      444        1     0.00000   40.76570    6.44185    4.86274
    3832      444        1     0.00000   40.74756   19.56582   18.02193
    3833      444        1     0.00000   51.24064   19.83028   18.02062
    3834      444        1     0.00000   51.25641    6.72891    4.87010
    3835      444        1     0.00000   38.09669   19.86393    4.86826
    3836      444        1     0.00000   38.09090    6.72155   18.06031
    3837      444        1     0.00000   51.24616    6.43423    8.25887
    3838      444        1     0.00000   51.24563   19.58265   21.44173
    3839      444        1     0.00000   38.15794    6.28754   21.38626
    3840      444        1     0.00000   38.10010   19.57634    8.27385
    3841      444        2     0.00000   33.61854    7.26598   -0.03417
    3842      444        2     0.00000   33.60067   20.44752   13.13948
    3843      444        2     0.00000   46.76696    7.33196   13.14395
    3844      444        2     0.00000   46.77353   20.48406    0.01025
    3845      444        2     0.00000   45.26566   18.97724    0.00789
    3846      444        2     0.00000   45.25856    5.81883   13.14080
    3847      444        2     0.00000   32.09753   18.93465   13.13659
    3848      444        2     0.00000   32.09858    5.75311   -0.02813
    3849      444        2     0.00000   45.28564    7.31934   -0.00158
    3850      444        2     0.00000   45.25699   20.43148   13.15893
    3851      444        2     0.00000   32.11461    7.32512   13.15394
    3852      444        2     0.00000   32.12408   20.43832    0.00105
    3853      444        2     0.00000   33.64247   18.93097    0.00499
    3854      444        2     0.00000   33.62617    5.80384   13.16104
    3855      444        2     0.00000   46.77748   18.91309   13.15473
    3856      444        2     0.00000   46.80429    5.80963    0.00394
    3857      444        2     0.00000   26.28659    7.33669    7.32197
    3858      444        2     0.00000   26.28133   20.48248   20.49273
    3859      444        2     0.00000   39.43080    7.24757   20.43096
    3860      444        2     0.00000   39.41976   20.47775    7.32828
    3861      444        2     0.00000   26.27712   18.96435   18.98591
    3862      444        2     0.00000   26.28291    5.82224    5.81541
    3863      444        2     0.00000   39.41976   18.96987    5.81620
    3864      444        2     0.00000   39.43238    5.75416   18.91888
    3865      444        2     0.00000   26.29237   18.98906    7.29253
    3866      444        2     0.00000   26.29579    5.79701   20.46960
    3867      444        2     0.00000   39.42870   18.92781   20.51113
    3868      444        2     0.00000   39.44210    5.84433    7.29463
    3869      444        2     0.00000   26.29736    7.31540   18.95331
    3870      444        2     0.00000   26.28659   20.51219    5.79333
    3871      444        2     0.00000   39.43842    7.36482    5.78492
    3872      444        2     0.00000   39.42922   20.44252   18.98670
    3873      444        2     0.00000   33.61118    0.00394    7.32696
    3874      444        2     0.00000   33.58568   13.15525   20.44410
    3875      444        2     0.00000   46.77485   -0.00631   20.48537
    3876      444        2     0.00000   46.74698   13.14526    7.31277
    3877      444        2     0.00000   45.22991   -0.00131   18.94201
    3878      444        2     0.00000   45.23333   13.14342    5.79937
    3879      444        2     0.00000   32.09805    0.00526    5.81804
    3880      444        2     0.00000   32.06992   13.15368   18.92650
    3881      444        2     0.00000   33.62932   -0.05126   18.88365
    3882      444        2     0.00000   33.61092   13.13186    5.81409
    3883      444        2     0.00000   46.77380   -0.00421    5.80437
    3884      444        2     0.00000   46.72306   13.13028   18.97855
    3885      444        2     0.00000   45.26040    0.00053    7.31934
    3886      444        2     0.00000   45.21493   13.12029   20.48932
    3887      444        2     0.00000   32.11435   -0.04259   20.40519
    3888      444        2     0.00000   32.09858   13.12476    7.32539
    3889      444        3     0.00000   34.79913    4.56095   23.34681
    3890      444        3     0.00000   34.11433    5.25521   24.47719
    3891      444        3     0.00000   34.75944   17.80190   10.20049
    3892      444        3     0.00000   34.07911   18.46909   11.33771
    3893      444        3     0.00000   44.10558   21.62548   23.36416
    3894      444        3     0.00000   44.79143   20.95382   24.49743
    3895      444        3     0.00000   44.10032    8.45997   10.20575
    3896      444        3     0.00000   44.76882    7.77859   11.34007
    3897      444        3     0.00000   30.97451    8.46838   23.33104
    3898      444        3     0.00000   31.66141    7.77622   24.45563
    3899      444        3     0.00000   44.10216    4.66821    2.92111
    3900      444        3     0.00000   44.78196    5.34617    1.78679
    3901      444        3     0.00000   44.07587   17.78324   16.07453
    3902      444        3     0.00000   44.75462   18.45936   14.93968
    3903      444        3     0.00000   30.94454    4.62562   16.06716
    3904      444        3     0.00000   31.64721    5.31515   14.95019
    3905      444        3     0.00000   34.75944   21.62022    2.92584
    3906      444        3     0.00000   34.08621   20.93752    1.79520
    3907      444        3     0.00000   34.76259    8.48889   16.10292
    3908      444        3     0.00000   34.07884    7.81382   14.96412
    3909      444        3     0.00000   49.66126    8.50361    4.65611
    3910      444        3     0.00000   50.78586    7.82170    5.34065
    3911      444        3     0.00000   36.48182    8.48284   17.85790
    3912      444        3     0.00000   37.61220    7.80277   18.54848
    3913      444        3     0.00000   49.62998   17.81294   21.62968
    3914      444        3     0.00000   50.76982   18.49301   20.96434
    3915      444        3     0.00000   49.63497    4.66926    8.46760
    3916      444        3     0.00000   50.76772    5.34512    7.78542
    3917      444        3     0.00000   36.48839   17.81110    8.47049
    3918      444        3     0.00000   37.62298   18.48881    7.79568
    3919      444        3     0.00000   29.22005   17.80690    4.66295
    3920      444        3     0.00000   28.08626   18.49459    5.34012
    3921      444        3     0.00000   42.35769   17.79822   17.81741
    3922      444        3     0.00000   41.22626   18.47829   18.49696
    3923      444        3     0.00000   42.38424    4.68056    4.66452
    3924      444        3     0.00000   41.24440    5.35511    5.33934
    3925      444        3     0.00000   29.23241    8.48179   21.60603
    3926      444        3     0.00000   28.10203    7.80304   20.91886
    3927      444        3     0.00000   42.38083    8.46602    8.46786
    3928      444        3     0.00000   41.24098    7.80356    7.79200
    3929      444        3     0.00000   30.96294   23.34891    8.48968
    3930      444        3     0.00000   31.64275   24.48954    7.82459
    3931      444        3     0.00000   30.95742   10.21706   21.61785
    3932      444        3     0.00000   31.62750   11.35611   20.94173
    3933      444        3     0.00000   47.89287   23.32341   17.83424
    3934      444        3     0.00000   47.23331   24.47824   18.49643
    3935      444        3     0.00000   47.92100   10.22021    4.66584
    3936      444        3     0.00000   47.24146   11.34954    5.34643
    3937      444        3     0.00000   34.74656   23.35391    4.64928
    3938      444        3     0.00000   34.06176   24.49191    5.31646
    3939      444        3     0.00000   30.89459    2.85040   17.75196
    3940      444        3     0.00000   31.58281    1.72606   18.43938
    3941      444        3     0.00000   30.93323   16.05586    4.66058
    3942      444        3     0.00000   31.60726   14.91996    5.34486
    3943      444        3     0.00000   47.90444    2.93636    8.48600
    3944      444        3     0.00000   47.22306    1.79836    7.81513
    3945      444        3     0.00000   47.89734   16.08057   21.61470
    3946      444        3     0.00000   47.22017   14.94020   20.93700
    3947      444        3     0.00000   34.76128   16.07610    8.46444
    3948      444        3     0.00000   34.09015   14.93757    7.78464
    3949      444        3     0.00000   30.97398    8.43710    2.92111
    3950      444        3     0.00000   31.64537    7.75572    1.77943
    3951      444        3     0.00000   30.92955   21.58131   16.06138
    3952      444        3     0.00000   31.60331   20.90019   14.92969
    3953      444        3     0.00000   47.91417   17.80716    2.94477
    3954      444        3     0.00000   47.24488   18.48959    1.80782
    3955      444        3     0.00000   47.88367    4.67846   16.09818
    3956      444        3     0.00000   47.21254    5.33776   14.95151
    3957      444        3     0.00000   34.78021    4.65559    2.93610
    3958      444        3     0.00000   34.10671    5.32093    1.78784
    3959      444        3     0.00000   30.95216   17.81032   23.35102
    3960      444        3     0.00000   31.62881   18.47987   24.48981
    3961      444        3     0.00000   30.95242    4.68503   10.20233
    3962      444        3     0.00000   31.62040    5.36273   11.34638
    3963      444        3     0.00000   47.91864    8.47653   23.34918
    3964      444        3     0.00000   47.25145    7.81408   24.49559
    3965      444        3     0.00000   47.91390   21.61917   10.23178
    3966      444        3     0.00000   47.23909   20.94199   11.37162
    3967      444        3     0.00000   34.77784    8.46576   10.21495
    3968      444        3     0.00000   34.11433    7.78358   11.35690
    3969      444        3     0.00000   34.75129   23.33787   21.61628
    3970      444        3     0.00000   34.06912   24.46352   20.93227
    3971      444        3     0.00000   34.75918   10.20155    8.48679
    3972      444        3     0.00000   34.07385   11.33666    7.81671
    3973      444        3     0.00000   44.08954   23.34996    4.67478
    3974      444        3     0.00000   44.76382   24.48639    5.35379
    3975      444        3     0.00000   44.07350   10.19445   17.80611
    3976      444        3     0.00000   44.74463   11.33298   18.49038
    3977      444        3     0.00000   30.98108   10.17552    4.64849
    3978      444        3     0.00000   31.65694   11.31694    5.32146
    3979      444        3     0.00000   44.13318    2.97316   21.59709
    3980      444        3     0.00000   44.79011    1.81860   20.93043
    3981      444        3     0.00000   44.09637   16.07926    8.47548
    3982      444        3     0.00000   44.77355   14.94047    7.80383
    3983      444        3     0.00000   30.95137    2.95423    8.46234
    3984      444        3     0.00000   31.61698    1.81413    7.77701
    3985      444        3     0.00000   34.78573    2.93347    4.68661
    3986      444        3     0.00000   34.11065    1.80046    5.37351
    3987      444        3     0.00000   34.76627   16.08005   17.80085
    3988      444        3     0.00000   34.08121   14.94888   18.47592
    3989      444        3     0.00000   49.62866    4.68503   17.81110
    3990      444        3     0.00000   50.77271    5.36037   18.47198
    3991      444        3     0.00000   36.50706    4.67136    4.67057
    3992      444        3     0.00000   37.64243    5.35432    5.33802
    3993      444        3     0.00000   49.64470   21.61680    8.49678
    3994      444        3     0.00000   50.77771   20.94883    7.81145
    3995      444        3     0.00000   36.48629   21.61128   21.62075
    3996      444        3     0.00000   37.62771   20.93700   20.95146
    3997      444        3     0.00000   36.49891    8.47837    8.47548
    3998      444        3     0.00000   37.63718    7.80751    7.79515
    3999      444        3     0.00000   29.21769    4.68214    8.47837
    4000      444        3     0.00000   28.07758    5.35642    7.80829
    4001      444        3     0.00000   42.41763    4.72210   21.60655
    4002      444        3     0.00000   41.26228    5.38718   20.95961
    4003      444        3     0.00000   29.20638   21.59682   17.79822
    4004      444        3     0.00000   28.07364   20.93069   18.48618
    4005      444        3     0.00000   29.23714    8.45498    4.65112
    4006      444        3     0.00000   28.09388    7.78805    5.32908
    4007      444        3     0.00000   42.35428   21.62364    4.66742
    4008      444        3     0.00000   41.21732   20.94988    5.34012
    4009      444        3     0.00000   44.08717   21.61812    2.94556
    4010      444        3     0.00000   44.76409   20.94120    1.81202
    4011      444        3     0.00000   44.10163    8.47653   16.06532
    4012      444        3     0.00000   44.79064    7.81303   14.93310
    4013      444        3     0.00000   34.78021   17.81294   16.07137
    4014      444        3     0.00000   34.10750   18.49275   14.93705
    4015      444        3     0.00000   34.75392   21.61233   23.35023
    4016      444        3     0.00000   34.08305   20.93595   24.48849
    4017      444        3     0.00000   44.17682    4.73156   23.29818
    4018      444        3     0.00000   44.83454    5.37929   24.45642
    4019      444        3     0.00000   44.09900   17.81873   10.19392
    4020      444        3     0.00000   44.77355   18.48723   11.33245
    4021      444        3     0.00000   29.22478   17.81110   21.61628
    4022      444        3     0.00000   28.08599   18.48171   20.94147
    4023      444        3     0.00000   42.36584   17.81610    8.46970
    4024      444        3     0.00000   41.22521   18.49275    7.79725
    4025      444        3     0.00000   42.35480    8.44236   17.77667
    4026      444        3     0.00000   41.21522    7.74258   18.42861
    4027      444        3     0.00000   49.64522    8.45918   21.61628
    4028      444        3     0.00000   50.78559    7.77859   20.95040
    4029      444        3     0.00000   49.63865   17.81110    4.67951
    4030      444        3     0.00000   50.77666   18.49012    5.34959
    4031      444        3     0.00000   36.50233   17.80427   17.80821
    4032      444        3     0.00000   37.63218   18.48039   18.49301
    4033      444        3     0.00000   47.90234    2.94740   17.82767
    4034      444        3     0.00000   47.23883    1.79888   18.49669
    4035      444        3     0.00000   47.91338   16.07216    4.67136
    4036      444        3     0.00000   47.23357   14.94047    5.35116
    4037      444        3     0.00000   30.95584   16.08346   21.61969
    4038      444        3     0.00000   31.62934   14.95151   20.94278
    4039      444        3     0.00000   47.91180   23.34550    8.49125
    4040      444        3     0.00000   47.23725   24.48061    7.80567
    4041      444        3     0.00000   47.91180   10.19050   21.60340
    4042      444        3     0.00000   47.23331   11.32772   20.92990
    4043      444        3     0.00000   30.94349   23.31421   17.78482
    4044      444        3     0.00000   31.62697   24.44275   18.45200
    4045      444        3     0.00000   47.89839   17.80479   23.36101
    4046      444        3     0.00000   47.22017   18.47882   24.50032
    4047      444        3     0.00000   47.92021    4.67294   10.21127
    4048      444        3     0.00000   47.25355    5.35485   11.34822
    4049      444        3     0.00000   30.96557   21.61339   10.20996
    4050      444        3     0.00000   31.64222   20.93910   11.34402
    4051      444        3     0.00000   47.93152    8.50072    2.92532
    4052      444        3     0.00000   47.25355    7.81276    1.79783
    4053      444        3     0.00000   47.84924   21.55135   16.14208
    4054      444        3     0.00000   47.18836   20.89021   14.98857
    4055      444        3     0.00000   30.95558   17.79691    2.93794
    4056      444        3     0.00000   31.63538   18.47382    1.80256
    4057      444        3     0.00000   44.11004    2.94030    4.65716
    4058      444        3     0.00000   44.78906    1.80125    5.33224
    4059      444        3     0.00000   44.08271   16.06164   17.81400
    4060      444        3     0.00000   44.76014   14.92916   18.49301
    4061      444        3     0.00000   34.75655    2.86932   21.57685
    4062      444        3     0.00000   34.07254    1.75445   20.88469
    4063      444        3     0.00000   34.76470   10.22363   17.82767
    4064      444        3     0.00000   34.08594   11.36058   18.49354
    4065      444        3     0.00000   44.10032   23.34891   21.62548
    4066      444        3     0.00000   44.77460   24.48876   20.95040
    4067      444        3     0.00000   44.11925   10.18919    8.47548
    4068      444        3     0.00000   44.78670   11.33429    7.80619
    4069      444        3     0.00000   29.22978   21.61917    8.48416
    4070      444        3     0.00000   28.09230   20.94541    7.80304
    4071      444        3     0.00000   42.37347   21.61260   21.62863
    4072      444        3     0.00000   41.23126   20.93437   20.95829
    4073      444        3     0.00000   29.18115    4.59644   17.77246
    4074      444        3     0.00000   28.06812    5.28545   18.47882
    4075      444        3     0.00000   49.61841   21.58841   17.82872
    4076      444        3     0.00000   50.76562   20.92175   18.49091
    4077      444        3     0.00000   36.48261   21.62653    4.66400
    4078      444        3     0.00000   37.61720   20.95146    5.34380
    4079      444        3     0.00000   36.54334    4.53282   21.61312
    4080      444        3     0.00000   37.67082    5.20737   20.90913
    4081      444        3     0.00000   35.99944    5.06594   22.80370
    4082      444        4     0.00000   36.48419    5.90163   23.28898
    4083      444        3     0.00000   35.91085   18.36841    9.62531
    4084      444        4     0.00000   36.33277   19.27297   10.04881
    4085      444        3     0.00000   42.95679   21.05556   22.78320
    4086      444        4     0.00000   42.54092   20.14836   23.20275
    4087      444        3     0.00000   42.94786    7.90503    9.62137
    4088      444        4     0.00000   42.52199    7.00205   10.04382
    4089      444        3     0.00000   29.81416   21.04872    9.62926
    4090      444        4     0.00000   29.39434   20.13916   10.04461
    4091      444        3     0.00000   42.95627    5.23734    3.50602
    4092      444        4     0.00000   42.53645    6.14348    3.08410
    4093      444        3     0.00000   42.92998   18.35369   16.65943
    4094      444        4     0.00000   42.51095   19.25983   16.23909
    4095      444        3     0.00000   29.80943   18.36762    3.51890
    4096      444        4     0.00000   29.39934   19.27876    3.10434
    4097      444        3     0.00000   35.90953   21.06187    3.51049
    4098      444        4     0.00000   36.33303   20.15756    3.09356
    4099      444        3     0.00000   35.91085    7.92317   16.69492
    4100      444        4     0.00000   36.33566    7.02018   16.27247
    4101      444        3     0.00000   49.07478    9.64582    5.22630
    4102      444        4     0.00000   49.48855   10.06012    6.13901
    4103      444        3     0.00000   49.06084   22.75875   18.37656
    4104      444        4     0.00000   49.51247   23.20591   19.25431
    4105      444        3     0.00000   35.90454    9.63793   18.40863
    4106      444        4     0.00000   36.31305   10.05170   19.32240
    4107      444        3     0.00000   49.04849   16.66600   21.05529
    4108      444        4     0.00000   49.47094   16.25433   20.14652
    4109      444        3     0.00000   49.05348    3.51390    7.91397
    4110      444        4     0.00000   49.46936    3.09014    7.00809
    4111      444        3     0.00000   35.92005    3.42505   21.02217
    4112      444        4     0.00000   36.31489    3.02258   20.09841
    4113      444        3     0.00000   29.78235   16.64129    5.21894
    4114      444        4     0.00000   29.35386   16.21122    6.11641
    4115      444        3     0.00000   29.72715    3.41217   18.29717
    4116      444        4     0.00000   29.28262    2.96317   19.17439
    4117      444        3     0.00000   29.80706    9.63846   21.05214
    4118      444        4     0.00000   29.38567   10.06117   20.14784
    4119      444        3     0.00000   29.81179   22.77058    7.92291
    4120      444        4     0.00000   29.39355   23.19092    7.01677
    4121      444        3     0.00000   31.52576   22.76611    9.63688
    4122      444        4     0.00000   32.42823   23.18803   10.06038
    4123      444        3     0.00000   44.66288   22.77689   22.78136
    4124      444        4     0.00000   45.56639   23.20223   23.20117
    4125      444        3     0.00000   44.67129    9.61138    9.63110
    4126      444        4     0.00000   45.57191   10.03514   10.05670
    4127      444        3     0.00000   47.29666   22.71143   16.71648
    4128      444        4     0.00000   46.38973   23.13046   16.30165
    4129      444        3     0.00000   47.36028    9.64398    3.51154
    4130      444        4     0.00000   46.45177   10.06169    3.09514
    4131      444        3     0.00000   34.19372   22.77294    3.49655
    4132      444        4     0.00000   33.29021   23.19355    3.07174
    4133      444        3     0.00000   31.48370    3.45528   16.62736
    4134      444        4     0.00000   32.39879    3.04729   16.21622
    4135      444        3     0.00000   44.66288    3.51311    3.49761
    4136      444        4     0.00000   45.56219    3.08646    3.07016
    4137      444        3     0.00000   47.35134    3.51916    9.63977
    4138      444        4     0.00000   46.44704    3.10092   10.06564
    4139      444        3     0.00000   34.19819    3.44766   22.73167
    4140      444        4     0.00000   33.26734    3.06044   23.12625
    4141      444        3     0.00000   31.54285    9.58720    3.50023
    4142      444        4     0.00000   32.44847   10.00439    3.07831
    4143      444        3     0.00000   44.64658    9.63005   16.65260
    4144      444        4     0.00000   45.54747   10.06327   16.23672
    4145      444        3     0.00000   47.35345   16.64944    3.51706
    4146      444        4     0.00000   46.45072   16.22673    3.09041
    4147      444        3     0.00000   34.21107   16.66206   16.64734
    4148      444        4     0.00000   33.30545   16.24592   16.22279
    4149      444        3     0.00000   34.22579    3.50207    3.52284
    4150      444        4     0.00000   33.32859    3.07148    3.09724
    4151      444        3     0.00000   31.51499   16.65891   22.77321
    4152      444        4     0.00000   32.41955   16.23593   23.19513
    4153      444        3     0.00000   31.51867    3.53467    9.61480
    4154      444        4     0.00000   32.42744    3.11774   10.02962
    4155      444        3     0.00000   44.65946   16.66259    9.62163
    4156      444        4     0.00000   45.56350   16.24198   10.04513
    4157      444        3     0.00000   47.34977    9.61664   22.75717
    4158      444        4     0.00000   46.43810   10.03094   23.16831
    4159      444        3     0.00000   34.20450    9.61480    9.63793
    4160      444        4     0.00000   33.29757   10.03067   10.05880
    4161      444        3     0.00000   35.90507   22.76006   21.05477
    4162      444        4     0.00000   36.32620   23.17804   20.14915
    4163      444        3     0.00000   35.91427    9.63110    7.91897
    4164      444        4     0.00000   36.32961   10.05775    7.01230
    4165      444        3     0.00000   42.93603   22.77268    5.23340
    4166      444        4     0.00000   42.51595   23.19066    6.13928
    4167      444        3     0.00000   42.92288    9.59614   18.35763
    4168      444        4     0.00000   42.49492   10.00544   19.26535
    4169      444        3     0.00000   29.82178    9.60665    5.20895
    4170      444        4     0.00000   29.39907   10.03488    6.11010
    4171      444        3     0.00000   42.97230    3.55097   21.05240
    4172      444        4     0.00000   42.52331    3.11301   20.16939
    4173      444        3     0.00000   42.94602   16.66180    7.90924
    4174      444        4     0.00000   42.52699   16.24329    7.00283
    4175      444        3     0.00000   29.79812    3.53415    7.90898
    4176      444        4     0.00000   29.37252    3.11406    7.00651
    4177      444        3     0.00000   35.93661    3.51890    5.23892
    4178      444        4     0.00000   36.36169    3.09908    6.14217
    4179      444        3     0.00000   35.91979   16.65181   18.36499
    4180      444        4     0.00000   36.33934   16.22437   19.26745
    4181      444        3     0.00000   49.04008    5.24391   16.66443
    4182      444        4     0.00000   49.46042    6.14559   16.23514
    4183      444        3     0.00000   49.06295   18.37025    3.52626
    4184      444        4     0.00000   49.48408   19.27429    3.10434
    4185      444        3     0.00000   35.92347    5.22971    3.51758
    4186      444        4     0.00000   36.33803    6.13691    3.09777
    4187      444        3     0.00000   49.06768   21.05635    9.65160
    4188      444        4     0.00000   49.49328   20.15309   10.07142
    4189      444        3     0.00000   49.06742    7.90661   22.77189
    4190      444        4     0.00000   49.48671    7.00257   23.19618
    4191      444        3     0.00000   35.92662    7.90845    9.62689
    4192      444        4     0.00000   36.35301    7.00362   10.04198
    4193      444        3     0.00000   29.79812    5.24417    9.62873
    4194      444        4     0.00000   29.37778    6.14953   10.05065
    4195      444        3     0.00000   29.80312   18.37524   22.76769
    4196      444        4     0.00000   29.38435   19.28139   23.18724
    4197      444        3     0.00000   29.77893   21.02533   16.64629
    4198      444        4     0.00000   29.35622   20.11892   16.23146
    4199      444        3     0.00000   29.81784    7.88322    3.50339
    4200      444        4     0.00000   29.39198    6.97891    3.08673
    4201      444        3     0.00000   42.93340   21.05819    3.51916
    4202      444        4     0.00000   42.51411   20.15441    3.09409
    4203      444        3     0.00000   42.95259    7.89557   16.63051
    4204      444        4     0.00000   42.54723    6.98627   16.20491
    4205      444        3     0.00000   35.93056   18.37077   16.65496
    4206      444        4     0.00000   36.35222   19.27771   16.23909
    4207      444        3     0.00000   35.90244   21.04793   22.76926
    4208      444        4     0.00000   36.32252   20.14310   23.19040
    4209      444        3     0.00000   43.03119    5.30648   22.72352
    4210      444        4     0.00000   42.62636    6.22366   23.13414
    4211      444        3     0.00000   42.94681   18.38050    9.61927
    4212      444        4     0.00000   42.52488   19.28375   10.04434
    4213      444        3     0.00000   29.80654   16.66259   21.05424
    4214      444        4     0.00000   29.38882   16.24303   20.14705
    4215      444        3     0.00000   29.79287   22.74561   18.35395
    4216      444        4     0.00000   29.37962   23.16963   19.26114
    4217      444        3     0.00000   49.06374    9.60718   21.04320
    4218      444        4     0.00000   49.48303   10.02279   20.13495
    4219      444        3     0.00000   49.06295   22.76532    7.93080
    4220      444        4     0.00000   49.47567   23.17962    7.01834
    4221      444        3     0.00000   49.06163   16.65601    5.23734
    4222      444        4     0.00000   49.48171   16.23646    6.14085
    4223      444        3     0.00000   49.05664    3.53125   18.38103
    4224      444        4     0.00000   49.48697    3.11038   19.28165
    4225      444        3     0.00000   47.32295    3.53257   16.68782
    4226      444        4     0.00000   46.41497    3.11144   16.27431
    4227      444        3     0.00000   44.72150    3.56858   22.72694
    4228      444        4     0.00000   45.62738    3.14587   23.14308
    4229      444        3     0.00000   47.35055   22.76926    9.64687
    4230      444        4     0.00000   46.44678   23.19119   10.06800
    4231      444        3     0.00000   34.19162   22.76480   22.77137
    4232      444        4     0.00000   33.28837   23.18777   23.19487
    4233      444        3     0.00000   31.49895   22.73115   16.63367
    4234      444        4     0.00000   32.40431   23.14807   16.21070
    4235      444        3     0.00000   44.65420   22.76795    3.52521
    4236      444        4     0.00000   45.56061   23.18935    3.10329
    4237      444        3     0.00000   47.33715   16.65444   22.77347
    4238      444        4     0.00000   46.43021   16.22936   23.18803
    4239      444        3     0.00000   34.19767   16.65207    9.61717
    4240      444        4     0.00000   33.29231   16.23278   10.03803
    4241      444        3     0.00000   31.52839    9.62952   22.76164
    4242      444        4     0.00000   32.43243   10.05197   23.18225
    4243      444        3     0.00000   34.20766    9.64687   16.67257
    4244      444        4     0.00000   33.31150   10.07536   16.23909
    4245      444        3     0.00000   31.50684   16.63656    3.51285
    4246      444        4     0.00000   32.41219   16.21411    3.09330
    4247      444        3     0.00000   44.63554   16.62999   16.65260
    4248      444        4     0.00000   45.53275   16.20123   16.22410
    4249      444        3     0.00000   42.96521    3.52862    5.22682
    4250      444        4     0.00000   42.54828    3.11380    6.13533
    4251      444        3     0.00000   42.93708   16.64681   18.38050
    4252      444        4     0.00000   42.51963   16.22962   19.28848
    4253      444        3     0.00000   35.91006   16.66048    7.90425
    4254      444        4     0.00000   36.33119   16.24250    6.99915
    4255      444        3     0.00000   35.89665   22.77663    5.22262
    4256      444        4     0.00000   36.30753   23.19408    6.13297
    4257      444        3     0.00000   42.95154   22.76296   21.06108
    4258      444        4     0.00000   42.53040   23.17909   20.15283
    4259      444        3     0.00000   42.97598    9.60665    7.89846
    4260      444        4     0.00000   42.56589   10.01990    6.98575
    4261      444        3     0.00000   29.81337    7.91608   22.75770
    4262      444        4     0.00000   29.38698    7.01545   23.18172
    4263      444        3     0.00000   29.78813    5.18687   16.64445
    4264      444        4     0.00000   29.38961    6.11535   16.24908
    4265      444        3     0.00000   49.01090   20.99983   16.70675
    4266      444        4     0.00000   49.42309   20.08842   16.29324
    4267      444        3     0.00000   49.09318    7.95078    3.49498
    4268      444        4     0.00000   49.52220    7.05436    3.06596
    4269      444        3     0.00000   49.06584    5.23366    9.62242
    4270      444        4     0.00000   49.48934    6.13849   10.03961
    4271      444        3     0.00000   49.05138   18.36762   22.78504
    4272      444        4     0.00000   49.46857   19.27035   23.21064
    4273      385        5     0.00000   36.11274   13.50015   12.15395
    4274      385        6     0.00000   35.53467   14.23095   11.81851
    4275      385        6     0.00000   36.12115   13.62081   13.13685
    4276      386        5     0.00000   41.70680    2.81649   10.05749
    4277      386        6     0.00000   41.64003    2.64377   11.03014
    4278      386        6     0.00000   42.46390    3.44897    9.96863
    4279      387        5     0.00000   50.30558   23.43619   24.24848
    4280      387        6     0.00000   50.88654   22.63967   24.33839
    4281      387        6     0.00000   49.40863   23.06684   24.04949
    4282      388        5     0.00000   38.21656   24.90831    1.63590
    4283      388        6     0.00000   38.36062   24.80710    0.66140
    4284      388        6     0.00000   38.70814   24.14964    2.04047
    4285      389        5     0.00000   48.56190    9.73914   16.64576
    4286      389        6     0.00000   48.10843   10.43472   17.18493
    4287      389        6     0.00000   48.65417    8.96917   17.26116
    4288      390        5     0.00000   26.97165   21.20960   12.23859
    4289      390        6     0.00000   27.75608   21.43568   11.67866
    4290      390        6     0.00000   26.76503   20.26955   12.00700
    4291      391        5     0.00000   39.47444    2.37958   16.32189
    4292      391        6     0.00000   39.66581    1.68584   15.64183
    4293      391        6     0.00000   39.92922    3.19161   15.98357
    4294      392        5     0.00000   31.41036    0.89773   23.82551
    4295      392        6     0.00000   32.14090    1.13800   24.44932
    4296      392        6     0.00000   31.15905    1.75288   23.39387
    4297      393        5     0.00000   28.90328   16.23041    0.28365
    4298      393        6     0.00000   29.83387   16.56401    0.22818
    4299      393        6     0.00000   28.35045   17.04849    0.36120
    4300      394        5     0.00000   40.91606   11.85768    8.65766
    4301      394        6     0.00000   41.66632   11.83166    9.30355
    4302      394        6     0.00000   40.10219   11.85216    9.22074
    4303      395        5     0.00000   48.76116   16.18967   15.67285
    4304      395        6     0.00000   47.98620   16.66574   16.06217
    4305      395        6     0.00000   48.53325   16.09214   14.71413
    4306      396        5     0.00000   37.31857   25.82076    7.37533
    4307      396        6     0.00000   37.95736   26.55867    7.20946
    4308      396        6     0.00000   37.74154   25.02924    6.95736
    4309      397        5     0.00000   40.18947   15.67968   23.90569
    4310      397        6     0.00000   39.66502   15.78063   23.07184
    4311      397        6     0.00000   40.17580   16.58030   24.31657
    4312      398        5     0.00000   50.56662   14.54799   25.33838
    4313      398        6     0.00000   49.99985   15.35844   25.39043
    4314      398        6     0.00000   50.66204   14.37317   24.36836
    4315      399        5     0.00000   26.58627   26.32759   10.98492
    4316      399        6     0.00000   25.67723   26.17118   10.62504
    4317      399        6     0.00000   27.07470   25.48717   10.79723
    4318      400        5     0.00000   27.60045   25.65568   15.75933
    4319      400        6     0.00000   28.07574   24.86625   16.12184
    4320      400        6     0.00000   27.82942   25.66409   14.79614
    4321      401        5     0.00000   52.47039    0.84095   19.56056
    4322      401        6     0.00000   52.27375    1.73132   19.17413
    4323      401        6     0.00000   52.84446    1.03574   20.45672
    4324      402        5     0.00000   51.32318   18.02062   12.35926
    4325      402        6     0.00000   50.51167   17.68571   12.81667
    4326      402        6     0.00000   50.98564   18.43676   11.52646
    4327      403        5     0.00000   40.72548   16.09950    4.35485
    4328      403        6     0.00000   41.40160   16.64708    3.88193
    4329      403        6     0.00000   40.88951   15.17495    4.04098
    4330      404        5     0.00000   49.46857    1.77680   14.62790
    4331      404        6     0.00000   49.43650    1.55335   15.59162
    4332      404        6     0.00000   48.80769    2.50313   14.51250
    4333      405        5     0.00000   39.37559    7.79778   25.97271
    4334      405        6     0.00000   38.64479    7.53832   25.35731
    4335      405        6     0.00000   39.16923    8.73337   26.22297
    4336      406        5     0.00000   36.21868    3.59829    9.16449
    4337      406        6     0.00000   35.30780    3.77231    9.51149
    4338      406        6     0.00000   36.73235    4.41269    9.39556
    4339      407        5     0.00000   34.20871    1.20845   13.93916
    4340      407        6     0.00000   34.60066    2.10829   14.07060
    4341      407        6     0.00000   34.94345    0.58333   14.16208
    4342      408        5     0.00000   50.93070   12.30537    2.86486
    4343      408        6     0.00000   51.16388   12.23833    3.82463
    4344      408        6     0.00000   49.97225   12.55484    2.85907
    4345      409        5     0.00000   45.43338   26.29710   12.01541
    4346      409        6     0.00000   45.66313   25.37203   11.74622
    4347      409        6     0.00000   44.47624   26.25241   12.26593
    4348      410        5     0.00000   26.87281    7.93816   11.97282
    4349      410        6     0.00000   26.66513    7.81119   11.01305
    4350      410        6     0.00000   27.84782    8.11008   11.99569
    4351      411        5     0.00000   34.93057   23.87677   13.13159
    4352      411        6     0.00000   35.07410   24.04712   14.09636
    4353      411        6     0.00000   34.50918   24.70642   12.79274
    4354      412        5     0.00000   43.18103   13.12791    4.15612
    4355      412        6     0.00000   42.63004   13.03722    3.34172
    4356      412        6     0.00000   43.55195   14.04326    4.09513
    4357      413        5     0.00000   42.28540   24.02714    0.15930
    4358      413        6     0.00000   43.20022   23.70196    0.35541
    4359      413        6     0.00000   41.77358   23.84313    0.98711
    4360      414        5     0.00000   30.44323   17.17993    8.93053
    4361      414        6     0.00000   29.77289   16.50565    9.20655
    4362      414        6     0.00000   30.88960   16.77615    8.14478
    4363      415        5     0.00000   40.21392   24.99769   14.49278
    4364      415        6     0.00000   39.23180   25.08391   14.58505
    4365      415        6     0.00000   40.54146   24.88334   15.41996
    4366      416        5     0.00000   37.65584   16.79613   13.42628
    4367      416        6     0.00000   38.48496   16.27747   13.27013
    4368      416        6     0.00000   37.23129   16.35791   14.20624
    4369      417        5     0.00000   27.92169   13.62528   20.38574
    4370      417        6     0.00000   27.34730   12.90158   20.74220
    4371      417        6     0.00000   27.51081   13.86345   19.51666
    4372      418        5     0.00000   34.40324    8.39846    4.48288
    4373      418        6     0.00000   35.20765    8.84693    4.11905
    4374      418        6     0.00000   34.69898    8.01965    5.34854
    4375      419        5     0.00000   30.77577   14.32953   13.48937
    4376      419        6     0.00000   30.67877   13.38554   13.77171
    4377      419        6     0.00000   31.75315   14.46308   13.40210
    4378      420        5     0.00000   38.85062    9.87689   15.02906
    4379      420        6     0.00000   39.26098   10.69918   14.66102
    4380      420        6     0.00000   38.84011    9.24335   14.26802
    4381      421        5     0.00000   39.77990   18.34895    1.11198
    4382      421        6     0.00000   40.52096   19.00247    1.04731
    4383      421        6     0.00000   39.64373   18.22435    2.08463
    4384      422        5     0.00000   36.29965   16.30402    3.19924
    4385      422        6     0.00000   37.18161   16.60160    2.86091
    4386      422        6     0.00000   35.64219   16.80927    2.65771
    4387      423        5     0.00000   30.57861    3.62878    3.45449
    4388      423        6     0.00000   30.83571    2.82279    2.93951
    4389      423        6     0.00000   29.58992    3.59802    3.48630
    4390      424        5     0.00000   51.61498   24.67961    5.70526
    4391      424        6     0.00000   51.51456   25.57234    6.12193
    4392      424        6     0.00000   52.44962   24.31578    6.09459
    4393      425        5     0.00000   39.00546   11.18629    5.24391
    4394      425        6     0.00000   38.94868   10.49282    4.53939
    4395      425        6     0.00000   39.17896   12.02803    4.75206
    4396      426        5     0.00000   52.30425   11.44812   23.64597
    4397      426        6     0.00000   52.92149   12.16446   23.94065
    4398      426        6     0.00000   52.77769   10.60664   23.86573
    4399      427        5     0.00000   40.87716   12.21704   12.24911
    4400      427        6     0.00000   40.53778   11.51463   11.63976
    4401      427        6     0.00000   40.90108   11.78066   13.13712
    4402      428        5     0.00000   50.37550   12.82955   10.16895
    4403      428        6     0.00000   51.30977   12.66262   10.45181
    4404      428        6     0.00000   49.82372   12.37371   10.85296
    4405      429        5     0.00000   37.86509   22.24640   24.94722
    4406      429        6     0.00000   37.20290   22.95170   25.15805
    4407      429        6     0.00000   37.71446   21.55108   25.63570
    4408      430        5     0.00000   27.78631    2.36512   24.72824
    4409      430        6     0.00000   26.95850    2.78547   25.07314
    4410      430        6     0.00000   28.50344    3.01180   24.94748
    4411      431        5     0.00000   28.34467   17.12420   12.28907
    4412      431        6     0.00000   27.69010   16.40023   12.12319
    4413      431        6     0.00000   28.88541   17.16442   11.46074
    4414      432        5     0.00000   50.20463    9.18420   13.86082
    4415      432        6     0.00000   50.51535    9.92684   13.28380
    4416      432        6     0.00000   49.32504    8.92790   13.48517
    4417      433        5     0.00000   52.45672    6.67581    0.68480
    4418      433        6     0.00000   51.99589    7.34642    1.24973
    4419      433        6     0.00000   52.63048    7.14689   -0.16877
    4420      434        5     0.00000   43.17525   11.90973    0.55047
    4421      434        6     0.00000   42.94496   11.05616    0.10436
    4422      434        6     0.00000   42.36821   12.47256    0.44032
    4423      435        5     0.00000   27.24767    1.86171    4.77204
    4424      435        6     0.00000   28.17695    2.03205    5.06726
    4425      435        6     0.00000   26.69037    2.42138    5.36930
    4426      436        5     0.00000   39.72181    1.48632   26.22402
    4427      436        6     0.00000   40.09325    2.33621   25.88044
    4428      436        6     0.00000   39.88374    0.83464   25.49663
    4429      437        5     0.00000   52.00956   15.54456   10.21995
    4430      437        6     0.00000   51.16283   15.73620   10.69628
    4431      437        6     0.00000   52.41518   16.43414   10.06406
    4432      438        5     0.00000   40.91370   23.29213   17.59817
    4433      438        6     0.00000   40.13821   23.43382   18.19727
    4434      438        6     0.00000   40.72627   22.43199   17.14497
    4435      439        5     0.00000   30.68771   10.66921   13.12581
    4436      439        6     0.00000   29.86200   10.34560   12.68523
    4437      439        6     0.00000   31.31625   10.84166   12.38029
    4438      440        5     0.00000   42.85375    2.01208   15.95938
    4439      440        6     0.00000   42.79933    1.02865   16.06243
    4440      440        6     0.00000   43.61767    2.28021   16.52957
    4441      441        5     0.00000   27.12491   21.30503    1.83411
    4442      441        6     0.00000   26.63096   21.74062    1.09463
    4443      441        6     0.00000   26.45220   20.73090    2.27969
    4444      442        5     0.00000   50.58817   20.08001    0.46845
    4445      442        6     0.00000   51.44752   19.74248    0.11120
    4446      442        6     0.00000   50.41861   20.91439   -0.03680
    4447      443        5     0.00000   48.02142   24.73665    1.66665
    4448      443        6     0.00000   47.92468   25.62098    1.23159
    4449      443        6     0.00000   47.39077   24.14938    1.17875
    4450      444        5     0.00000   41.31065   22.03794   13.64053
    4451      444        6     0.00000   41.42605   21.21276   13.10583
    4452      444        6     0.00000   40.87637   21.73484   14.47701
    4453      445        5     0.00000   38.78885   13.89473   17.73960
    4454      445        6     0.00000   39.77175   13.77328   17.76011
    4455      445        6     0.00000   38.59905   14.51197   18.49038
    4456      446        5     0.00000   30.38986   11.67577    1.50288
    4457      446        6     0.00000   30.61173   11.84322    0.55283
    4458      446        6     0.00000   29.42431   11.45574    1.49946
    4459      447        5     0.00000   47.53851   14.04457    0.37276
    4460      447        6     0.00000   46.62264   14.28669    0.08438
    4461      447        6     0.00000   47.54771   13.05431    0.37040
    4462      448        5     0.00000   41.54934   16.39603   12.14159
    4463      448        6     0.00000   42.01805   17.21700   12.43602
    4464      448        6     0.00000   40.88505   16.71306   11.47914
    4465      449        5     0.00000   44.86582    1.89404   26.21140
    4466      449        6     0.00000   44.43181    2.09777   25.34522
    4467      449        6     0.00000   44.15894    1.45083   26.74452
    4468      450        5     0.00000   29.57362   24.21799   22.71669
    4469      450        6     0.00000   29.05260   23.53766   23.21327
    4470      450        6     0.00000   30.49528   24.13045   23.06790
    4471      451        5     0.00000   37.09380   25.62045   11.79854
    4472      451        6     0.00000   36.89796   26.58259   11.66972
    4473      451        6     0.00000   37.02151   25.22876   10.89213
    4474      452        5     0.00000   45.65814   12.70967   24.24691
    4475      452        6     0.00000   46.16313   12.04590   24.78029
    4476      452        6     0.00000   44.95941   12.17813   23.78924
    4477      453        5     0.00000   28.02606   10.40291    9.27963
    4478      453        6     0.00000   27.51502   10.22967   10.11006
    4479      453        6     0.00000   27.44457   11.00674    8.75256
    4480      454        5     0.00000   28.26764    9.30697   15.26722
    4481      454        6     0.00000   28.19588    8.68526   16.03483
    4482      454        6     0.00000   27.72664    8.88373   14.55430
    4483      455        5     0.00000   49.35395   23.13309   14.03616
    4484      455        6     0.00000   48.86789   23.76820   14.62028
    4485      455        6     0.00000   48.66521   22.79818   13.40919
    4486      456        5     0.00000   42.19445    3.62642   25.27135
    4487      456        6     0.00000   41.96548    3.20923   24.40201
    4488      456        6     0.00000   41.65318    4.45448   25.29921
    4489      457        5     0.00000   37.32225    0.22292    4.22525
    4490      457        6     0.00000   36.68240   -0.46083    4.54649
    4491      457        6     0.00000   36.76153    0.87486    3.73498
    4492      458        5     0.00000   44.36767   13.09742   13.82428
    4493      458        6     0.00000   45.30246   12.84926   14.03695
    4494      458        6     0.00000   43.88239   12.23465   13.79458
    4495      459        5     0.00000   40.39241   23.48903   11.10375
    4496      459        6     0.00000   39.42738   23.60285   10.91368
    4497      459        6     0.00000   40.61428   24.23455   11.71625
    4498      460        5     0.00000   50.81030   25.47455   16.90627
    4499      460        6     0.00000   50.44963   26.29789   17.32189
    4500      460        6     0.00000   51.57029   25.21719   17.48645
    4501      461        5     0.00000   36.92109    8.73836   22.82289
    4502      461        6     0.00000   36.30359    8.12217   22.35470
    4503      461        6     0.00000   37.57382    8.14531   23.27294
    4504      462        5     0.00000   28.04367    2.66402    1.55861
    4505      462        6     0.00000   27.76160    3.55412    1.22791
    4506      462        6     0.00000   27.27895    2.06833    1.35856
    4507      463        5     0.00000   36.71684    2.82095   25.29658
    4508      463        6     0.00000   37.24838    2.07674   24.91672
    4509      463        6     0.00000   36.46894    2.51312   26.20457
    4510      464        5     0.00000   39.50598   11.08298   19.87996
    4511      464        6     0.00000   39.78358   12.01541   20.06266
    4512      464        6     0.00000   38.53464   11.07167   20.07107
    4513      465        5     0.00000   34.31544   11.19812    0.35489
    4514      465        6     0.00000   35.02968   10.69891    0.82570
    4515      465        6     0.00000   33.71660   11.51515    1.07702
    4516      466        5     0.00000   47.05429   18.65994   18.11420
    4517      466        6     0.00000   47.26407   19.24958   18.88128
    4518      466        6     0.00000   47.86790   18.10763   18.00038
    4519      467        5     0.00000   51.14101   15.31007    2.28126
    4520      467        6     0.00000   51.23196   16.15707    1.77680
    4521      467        6     0.00000   51.10420   15.58767    3.23078
    4522      468        5     0.00000   30.97372   26.21745   10.71153
    4523      468        6     0.00000   31.94768   26.05814   10.79381
    4524      468        6     0.00000   30.55653   25.42618   11.13582
    4525      469        5     0.00000   40.96312   25.11178   22.14624
    4526      469        6     0.00000   40.41213   25.92776   22.25060
    4527      469        6     0.00000   40.81302   24.60074   22.98088
    4528      470        5     0.00000   36.63482   13.81403   21.60892
    4529      470        6     0.00000   36.82698   13.84295   22.57973
    4530      470        6     0.00000   37.26967   13.14526   21.24851
    4531      471        5     0.00000   47.38867    5.70237    4.84460
    4532      471        6     0.00000   46.54562    5.44580    5.29491
    4533      471        6     0.00000   47.49593    5.03939    4.11695
    4534      472        5     0.00000   40.71076   11.04460    2.49525
    4535      472        6     0.00000   40.72311   12.02172    2.33673
    4536      472        6     0.00000   41.55854   10.85638    2.97106
    4537      473        5     0.00000   32.19768    4.72972   20.42833
    4538      473        6     0.00000   31.45452    5.10721   19.89521
    4539      473        6     0.00000   31.98133    3.76732   20.50588
    4540      474        5     0.00000   47.44913   10.98019   12.16657
    4541      474        6     0.00000   48.08635   11.31773   12.84532
    4542      474        6     0.00000   47.88341   10.16921   11.80038
    4543      475        5     0.00000   47.97936   25.67408   24.23771
    4544      475        6     0.00000   48.70543   26.32838   24.07788
    4545      475        6     0.00000   47.97805   25.10284   23.42883
    4546      476        5     0.00000   40.56249   25.57708    5.60852
    4547      476        6     0.00000   40.44446   25.73480    4.63824
    4548      476        6     0.00000   40.02306   24.76820    5.79569
    4549      477        5     0.00000   42.31905   17.08135   26.12754
    4550      477        6     0.00000   42.80643   16.44019   25.55184
    4551      477        6     0.00000   42.11269   17.84370   25.53002
    4552      478        5     0.00000   40.12348    2.54519    3.21554
    4553      478        6     0.00000   40.28226    2.34777    4.17268
    4554      478        6     0.00000   40.12716    3.53388    3.16112
    4555      479        5     0.00000   43.73649   23.63834   16.69098
    4556      479        6     0.00000   43.87188   24.61520   16.60265
    4557      479        6     0.00000   43.90132   23.28214   15.78220
    4558      480        5     0.00000   32.97633   18.42519    6.10642
    4559      480        6     0.00000   33.17875   17.46384    5.98470
    4560      480        6     0.00000   32.06046   18.44122    6.48260
    4561      444        1     0.00000   34.57621    6.35747   51.22381
    4562      444        1     0.00000   34.55150   19.55636   38.10825
    4563      444        1     0.00000   47.72936    6.44527   38.11193
    4564      444        1     0.00000   47.70045   19.55977   51.27481
    4565      444        1     0.00000   44.31614   19.86971   51.27061
    4566      444        1     0.00000   44.29485    6.68764   38.10195
    4567      444        1     0.00000   31.16667   19.84947   38.10326
    4568      444        1     0.00000   31.17771    6.69053   51.22302
    4569      444        1     0.00000   44.31167    6.43659   27.59730
    4570      444        1     0.00000   44.27829   19.54795   40.75019
    4571      444        1     0.00000   31.17719    6.40768   40.76360
    4572      444        1     0.00000   31.16115   19.56083   27.60992
    4573      444        1     0.00000   34.56806   19.84973   27.61202
    4574      444        1     0.00000   34.54914    6.72366   40.77648
    4575      444        1     0.00000   47.67652   19.81450   40.78515
    4576      444        1     0.00000   47.74014    6.72944   27.60729
    4577      444        1     0.00000   51.26035    8.29594   32.71871
    4578      444        1     0.00000   51.25273   21.40887   45.85661
    4579      444        1     0.00000   38.09064    8.26124   45.93337
    4580      444        1     0.00000   38.09380   21.42622   32.72134
    4581      444        1     0.00000   51.25273   18.01562   46.16865
    4582      444        1     0.00000   51.24458    4.86799   32.98553
    4583      444        1     0.00000   38.10063   18.01589   32.99447
    4584      444        1     0.00000   38.12245    4.75390   46.08374
    4585      444        1     0.00000   27.60492   18.01773   32.71003
    4586      444        1     0.00000   27.60860    4.82278   45.86949
    4587      444        1     0.00000   40.75150   18.00327   45.87449
    4588      444        1     0.00000   40.76123    4.87903   32.71135
    4589      444        1     0.00000   27.62727    8.27543   46.11476
    4590      444        1     0.00000   27.60992   21.43621   33.00682
    4591      444        1     0.00000   40.75965    8.29226   32.99762
    4592      444        1     0.00000   40.74861   21.40256   46.15787
    4593      444        1     0.00000   32.73343   24.96588   34.58752
    4594      444        1     0.00000   32.71450   11.83823   47.70255
    4595      444        1     0.00000   45.86450   24.96352   47.71306
    4596      444        1     0.00000   45.87370   11.82035   34.56754
    4597      444        1     0.00000   46.14131   24.94932   44.31614
    4598      444        1     0.00000   46.14788   11.81720   31.16720
    4599      444        1     0.00000   32.96844   24.96562   31.13539
    4600      444        1     0.00000   32.99789   11.83324   44.29879
    4601      444        1     0.00000   32.67744    1.26077   44.25384
    4602      444        1     0.00000   32.69847   14.44546   31.16141
    4603      444        1     0.00000   45.87712    1.32149   31.14354
    4604      444        1     0.00000   45.84531   14.44783   44.30484
    4605      444        1     0.00000   46.13369    1.32176   34.57726
    4606      444        1     0.00000   46.13080   14.46492   47.70229
    4607      444        1     0.00000   32.98579    1.27943   47.64288
    4608      444        1     0.00000   33.00420   14.45545   34.54808
    4609      444        1     0.00000   32.72265    8.23495   27.56891
    4610      444        1     0.00000   32.69190   21.37785   40.74414
    4611      444        1     0.00000   45.88080    8.29278   40.74993
    4612      444        1     0.00000   45.85635   21.41307   27.63121
    4613      444        1     0.00000   46.15498   18.02114   27.61833
    4614      444        1     0.00000   46.12896    4.85669   40.75597
    4615      444        1     0.00000   33.02181   18.01299   40.74572
    4616      444        1     0.00000   33.01629    4.84197   27.60282
    4617      444        1     0.00000   32.71766   18.00143   51.25404
    4618      444        1     0.00000   32.70241    4.88298   38.11851
    4619      444        1     0.00000   45.85766   18.00169   38.09774
    4620      444        1     0.00000   45.91865    4.89612   51.22434
    4621      444        1     0.00000   46.16576    8.29094   51.26482
    4622      444        1     0.00000   46.14657   21.41176   38.13954
    4623      444        1     0.00000   33.02812    8.25966   38.12508
    4624      444        1     0.00000   32.99526   21.40650   51.25772
    4625      444        1     0.00000   34.54467   24.92803   46.12606
    4626      444        1     0.00000   34.54835   11.81773   33.01839
    4627      444        1     0.00000   47.71359   24.95431   33.00209
    4628      444        1     0.00000   47.70123   11.81063   46.13001
    4629      444        1     0.00000   44.29091   24.96693   32.73054
    4630      444        1     0.00000   44.26541   11.81273   45.86397
    4631      444        1     0.00000   31.16063   24.92330   45.82770
    4632      444        1     0.00000   31.17692   11.79485   32.69558
    4633      444        1     0.00000   44.29695    1.32254   46.14736
    4634      444        1     0.00000   44.29248   14.45598   33.01261
    4635      444        1     0.00000   31.13302    1.33122   32.98211
    4636      444        1     0.00000   31.14801   14.47859   46.14236
    4637      444        1     0.00000   34.58226    1.32123   32.75157
    4638      444        1     0.00000   34.54966   14.47123   45.85425
    4639      444        1     0.00000   47.72095    1.31334   45.86687
    4640      444        1     0.00000   47.70886   14.46571   32.72922
    4641      444        1     0.00000   51.25588    6.44527   44.27960
    4642      444        1     0.00000   51.24379   19.58633   31.15878
    4643      444        1     0.00000   38.11246    6.44658   31.14985
    4644      444        1     0.00000   38.11193   19.56740   44.30826
    4645      444        1     0.00000   51.26246   19.85657   34.55544
    4646      444        1     0.00000   51.27008    6.69527   47.72174
    4647      444        1     0.00000   38.10484   19.85183   47.72200
    4648      444        1     0.00000   38.12008    6.71919   34.55098
    4649      444        1     0.00000   27.60124    6.44632   34.57017
    4650      444        1     0.00000   27.61176   19.57108   47.70360
    4651      444        1     0.00000   40.77385    6.47050   47.72463
    4652      444        1     0.00000   40.74546   19.57975   34.56281
    4653      444        1     0.00000   27.59099   19.84290   44.30694
    4654      444        1     0.00000   27.60966    6.70052   31.14538
    4655      444        1     0.00000   40.73941   19.86235   31.15142
    4656      444        1     0.00000   40.74072    6.65399   44.22781
    4657      444        1     0.00000   44.29353   19.85394   27.61833
    4658      444        1     0.00000   44.31877    6.72628   40.74020
    4659      444        1     0.00000   31.13066   19.81030   40.74125
    4660      444        1     0.00000   31.17614    6.65846   27.60440
    4661      444        1     0.00000   34.58541    6.40163   27.58258
    4662      444        1     0.00000   34.57910   19.58317   40.74756
    4663      444        1     0.00000   47.69282    6.42029   40.75597
    4664      444        1     0.00000   47.72095   19.58081   27.62175
    4665      444        1     0.00000   34.56281   19.84605   51.24800
    4666      444        1     0.00000   34.59225    6.69527   38.12403
    4667      444        1     0.00000   47.71674   19.85078   38.13007
    4668      444        1     0.00000   47.73225    6.72997   51.26298
    4669      444        1     0.00000   44.33980    6.44632   51.24721
    4670      444        1     0.00000   44.30458   19.57318   38.10747
    4671      444        1     0.00000   31.14722    6.45289   38.11325
    4672      444        1     0.00000   31.15510   19.56556   51.25956
    4673      444        1     0.00000   27.60151   18.00195   46.14631
    4674      444        1     0.00000   27.59730    4.87798   33.01103
    4675      444        1     0.00000   40.74440   18.01904   32.99789
    4676      444        1     0.00000   40.77464    4.89638   46.17207
    4677      444        1     0.00000   27.61596    8.27044   32.70267
    4678      444        1     0.00000   27.60414   21.41360   45.86397
    4679      444        1     0.00000   40.73626    8.19998   45.80877
    4680      444        1     0.00000   40.73994   21.42516   32.71608
    4681      444        1     0.00000   51.26062    8.24835   46.14788
    4682      444        1     0.00000   51.25036   21.43857   33.01655
    4683      444        1     0.00000   38.11167    8.28884   32.99762
    4684      444        1     0.00000   38.10904   21.40781   46.15051
    4685      444        1     0.00000   51.26430   18.01168   32.72134
    4686      444        1     0.00000   51.25194    4.88271   45.84505
    4687      444        1     0.00000   38.10221   18.00590   45.87265
    4688      444        1     0.00000   38.12666    4.87877   32.70951
    4689      444        1     0.00000   46.15051    1.32254   44.30826
    4690      444        1     0.00000   46.14394   14.46492   31.16063
    4691      444        1     0.00000   33.02628    1.32307   31.18087
    4692      444        1     0.00000   32.99131   14.47754   44.28591
    4693      444        1     0.00000   32.70294    1.33148   34.53547
    4694      444        1     0.00000   32.71792   14.47149   47.70202
    4695      444        1     0.00000   45.88159    1.34463   47.68494
    4696      444        1     0.00000   45.86292   14.46229   34.56123
    4697      444        1     0.00000   46.15051   24.96404   34.56517
    4698      444        1     0.00000   46.14709   11.80590   47.70360
    4699      444        1     0.00000   32.97922   24.94433   47.68862
    4700      444        1     0.00000   32.98317   11.80984   34.58016
    4701      444        1     0.00000   32.71240   24.91488   44.25331
    4702      444        1     0.00000   32.74263   11.80248   31.13407
    4703      444        1     0.00000   45.85346   24.95957   31.16720
    4704      444        1     0.00000   45.83637   11.80984   44.31036
    4705      444        1     0.00000   46.13027   18.00642   51.26482
    4706      444        1     0.00000   46.16786    4.87877   38.11535
    4707      444        1     0.00000   32.99237   17.98723   38.10063
    4708      444        1     0.00000   33.02733    4.78361   51.25142
    4709      444        1     0.00000   32.75972    8.23731   51.21330
    4710      444        1     0.00000   32.72949   21.41491   38.11246
    4711      444        1     0.00000   45.85372    8.25571   38.10773
    4712      444        1     0.00000   45.88106   21.43279   51.25956
    4713      444        1     0.00000   46.15498    8.27280   27.61675
    4714      444        1     0.00000   46.11502   21.37811   40.78436
    4715      444        1     0.00000   32.99237    8.29120   40.76885
    4716      444        1     0.00000   32.99552   21.40571   27.60361
    4717      444        1     0.00000   32.72134   17.99354   27.61044
    4718      444        1     0.00000   32.74079    4.84302   40.76649
    4719      444        1     0.00000   45.84215   17.98013   40.75071
    4720      444        1     0.00000   45.87186    4.87036   27.60098
    4721      444        1     0.00000   44.31509    1.32281   32.70872
    4722      444        1     0.00000   44.28617   14.45861   45.87607
    4723      444        1     0.00000   31.12146    1.25814   45.82480
    4724      444        1     0.00000   31.13302   14.44231   32.72318
    4725      444        1     0.00000   34.54651    1.28416   46.08006
    4726      444        1     0.00000   34.56570   14.46150   32.98264
    4727      444        1     0.00000   47.70071    1.31545   33.01865
    4728      444        1     0.00000   47.69414   14.45256   46.13973
    4729      444        1     0.00000   34.53757   24.97377   32.68822
    4730      444        1     0.00000   34.55728   11.84086   45.86871
    4731      444        1     0.00000   47.72174   24.97272   45.85661
    4732      444        1     0.00000   47.71438   11.82929   32.72081
    4733      444        1     0.00000   44.29485   24.97114   46.15393
    4734      444        1     0.00000   44.30089   11.81089   33.00735
    4735      444        1     0.00000   31.16983   24.97009   33.02549
    4736      444        1     0.00000   31.14669   11.83140   46.14263
    4737      444        1     0.00000   27.61702   19.85026   34.55728
    4738      444        1     0.00000   27.62438    6.71498   47.68099
    4739      444        1     0.00000   40.75255   19.84999   47.72857
    4740      444        1     0.00000   40.75913    6.71367   34.54835
    4741      444        1     0.00000   27.59546    6.37797   44.29853
    4742      444        1     0.00000   27.61465   19.58922   31.16010
    4743      444        1     0.00000   40.76570    6.44185   31.15064
    4744      444        1     0.00000   40.74756   19.56582   44.30983
    4745      444        1     0.00000   51.24064   19.83028   44.30852
    4746      444        1     0.00000   51.25641    6.72891   31.15800
    4747      444        1     0.00000   38.09669   19.86393   31.15616
    4748      444        1     0.00000   38.09090    6.72155   44.34821
    4749      444        1     0.00000   51.24616    6.43423   34.54677
    4750      444        1     0.00000   51.24563   19.58265   47.72963
    4751      444        1     0.00000   38.15794    6.28754   47.67416
    4752      444        1     0.00000   38.10010   19.57634   34.56175
    4753      444        2     0.00000   33.61854    7.26598   26.25373
    4754      444        2     0.00000   33.60067   20.44752   39.42738
    4755      444        2     0.00000   46.76696    7.33196   39.43185
    4756      444        2     0.00000   46.77353   20.48406   26.29815
    4757      444        2     0.00000   45.26566   18.97724   26.29579
    4758      444        2     0.00000   45.25856    5.81883   39.42870
    4759      444        2     0.00000   32.09753   18.93465   39.42449
    4760      444        2     0.00000   32.09858    5.75311   26.25977
    4761      444        2     0.00000   45.28564    7.31934   26.28632
    4762      444        2     0.00000   45.25699   20.43148   39.44683
    4763      444        2     0.00000   32.11461    7.32512   39.44184
    4764      444        2     0.00000   32.12408   20.43832   26.28895
    4765      444        2     0.00000   33.64247   18.93097   26.29289
    4766      444        2     0.00000   33.62617    5.80384   39.44894
    4767      444        2     0.00000   46.77748   18.91309   39.44263
    4768      444        2     0.00000   46.80429    5.80963   26.29184
    4769      444        2     0.00000   26.28659    7.33669   33.60987
    4770      444        2     0.00000   26.28133   20.48248   46.78063
    4771      444        2     0.00000   39.43080    7.24757   46.71886
    4772      444        2     0.00000   39.41976   20.47775   33.61618
    4773      444        2     0.00000   26.27712   18.96435   45.27381
    4774      444        2     0.00000   26.28291    5.82224   32.10331
    4775      444        2     0.00000   39.41976   18.96987   32.10410
    4776      444        2     0.00000   39.43238    5.75416   45.20678
    4777      444        2     0.00000   26.29237   18.98906   33.58043
    4778      444        2     0.00000   26.29579    5.79701   46.75750
    4779      444        2     0.00000   39.42870   18.92781   46.79903
    4780      444        2     0.00000   39.44210    5.84433   33.58253
    4781      444        2     0.00000   26.29736    7.31540   45.24121
    4782      444        2     0.00000   26.28659   20.51219   32.08123
    4783      444        2     0.00000   39.43842    7.36482   32.07282
    4784      444        2     0.00000   39.42922   20.44252   45.27460
    4785      444        2     0.00000   33.61118    0.00394   33.61486
    4786      444        2     0.00000   33.58568   13.15525   46.73200
    4787      444        2     0.00000   46.77485   -0.00631   46.77327
    4788      444        2     0.00000   46.74698   13.14526   33.60067
    4789      444        2     0.00000   45.22991   -0.00131   45.22991
    4790      444        2     0.00000   45.23333   13.14342   32.08727
    4791      444        2     0.00000   32.09805    0.00526   32.10594
    4792      444        2     0.00000   32.06992   13.15368   45.21440
    4793      444        2     0.00000   33.62932   -0.05126   45.17155
    4794      444        2     0.00000   33.61092   13.13186   32.10199
    4795      444        2     0.00000   46.77380   -0.00421   32.09227
    4796      444        2     0.00000   46.72306   13.13028   45.26645
    4797      444        2     0.00000   45.26040    0.00053   33.60724
    4798      444        2     0.00000   45.21493   13.12029   46.77722
    4799      444        2     0.00000   32.11435   -0.04259   46.69309
    4800      444        2     0.00000   32.09858   13.12476   33.61329
    4801      444        3     0.00000   34.79913    4.56095   49.63471
    4802      444        3     0.00000   34.11433    5.25521   50.76509
    4803      444        3     0.00000   34.75944   17.80190   36.48839
    4804      444        3     0.00000   34.07911   18.46909   37.62561
    4805      444        3     0.00000   44.10558   21.62548   49.65206
    4806      444        3     0.00000   44.79143   20.95382   50.78533
    4807      444        3     0.00000   44.10032    8.45997   36.49365
    4808      444        3     0.00000   44.76882    7.77859   37.62797
    4809      444        3     0.00000   30.97451    8.46838   49.61894
    4810      444        3     0.00000   31.66141    7.77622   50.74353
    4811      444        3     0.00000   44.10216    4.66821   29.20901
    4812      444        3     0.00000   44.78196    5.34617   28.07469
    4813      444        3     0.00000   44.07587   17.78324   42.36243
    4814      444        3     0.00000   44.75462   18.45936   41.22758
    4815      444        3     0.00000   30.94454    4.62562   42.35506
    4816      444        3     0.00000   31.64721    5.31515   41.23809
    4817      444        3     0.00000   34.75944   21.62022   29.21374
    4818      444        3     0.00000   34.08621   20.93752   28.08310
    4819      444        3     0.00000   34.76259    8.48889   42.39082
    4820      444        3     0.00000   34.07884    7.81382   41.25202
    4821      444        3     0.00000   49.66126    8.50361   30.94401
    4822      444        3     0.00000   50.78586    7.82170   31.62855
    4823      444        3     0.00000   36.48182    8.48284   44.14580
    4824      444        3     0.00000   37.61220    7.80277   44.83638
    4825      444        3     0.00000   49.62998   17.81294   47.91758
    4826      444        3     0.00000   50.76982   18.49301   47.25224
    4827      444        3     0.00000   49.63497    4.66926   34.75550
    4828      444        3     0.00000   50.76772    5.34512   34.07332
    4829      444        3     0.00000   36.48839   17.81110   34.75839
    4830      444        3     0.00000   37.62298   18.48881   34.08358
    4831      444        3     0.00000   29.22005   17.80690   30.95085
    4832      444        3     0.00000   28.08626   18.49459   31.62802
    4833      444        3     0.00000   42.35769   17.79822   44.10531
    4834      444        3     0.00000   41.22626   18.47829   44.78486
    4835      444        3     0.00000   42.38424    4.68056   30.95242
    4836      444        3     0.00000   41.24440    5.35511   31.62724
    4837      444        3     0.00000   29.23241    8.48179   47.89393
    4838      444        3     0.00000   28.10203    7.80304   47.20676
    4839      444        3     0.00000   42.38083    8.46602   34.75576
    4840      444        3     0.00000   41.24098    7.80356   34.07990
    4841      444        3     0.00000   30.96294   23.34891   34.77758
    4842      444        3     0.00000   31.64275   24.48954   34.11249
    4843      444        3     0.00000   30.95742   10.21706   47.90575
    4844      444        3     0.00000   31.62750   11.35611   47.22963
    4845      444        3     0.00000   47.89287   23.32341   44.12214
    4846      444        3     0.00000   47.23331   24.47824   44.78433
    4847      444        3     0.00000   47.92100   10.22021   30.95374
    4848      444        3     0.00000   47.24146   11.34954   31.63433
    4849      444        3     0.00000   34.74656   23.35391   30.93718
    4850      444        3     0.00000   34.06176   24.49191   31.60436
    4851      444        3     0.00000   30.89459    2.85040   44.03986
    4852      444        3     0.00000   31.58281    1.72606   44.72728
    4853      444        3     0.00000   30.93323   16.05586   30.94848
    4854      444        3     0.00000   31.60726   14.91996   31.63276
    4855      444        3     0.00000   47.90444    2.93636   34.77390
    4856      444        3     0.00000   47.22306    1.79836   34.10303
    4857      444        3     0.00000   47.89734   16.08057   47.90260
    4858      444        3     0.00000   47.22017   14.94020   47.22490
    4859      444        3     0.00000   34.76128   16.07610   34.75234
    4860      444        3     0.00000   34.09015   14.93757   34.07254
    4861      444        3     0.00000   30.97398    8.43710   29.20901
    4862      444        3     0.00000   31.64537    7.75572   28.06733
    4863      444        3     0.00000   30.92955   21.58131   42.34928
    4864      444        3     0.00000   31.60331   20.90019   41.21759
    4865      444        3     0.00000   47.91417   17.80716   29.23267
    4866      444        3     0.00000   47.24488   18.48959   28.09572
    4867      444        3     0.00000   47.88367    4.67846   42.38608
    4868      444        3     0.00000   47.21254    5.33776   41.23941
    4869      444        3     0.00000   34.78021    4.65559   29.22400
    4870      444        3     0.00000   34.10671    5.32093   28.07574
    4871      444        3     0.00000   30.95216   17.81032   49.63892
    4872      444        3     0.00000   31.62881   18.47987   50.77771
    4873      444        3     0.00000   30.95242    4.68503   36.49023
    4874      444        3     0.00000   31.62040    5.36273   37.63428
    4875      444        3     0.00000   47.91864    8.47653   49.63708
    4876      444        3     0.00000   47.25145    7.81408   50.78349
    4877      444        3     0.00000   47.91390   21.61917   36.51968
    4878      444        3     0.00000   47.23909   20.94199   37.65952
    4879      444        3     0.00000   34.77784    8.46576   36.50285
    4880      444        3     0.00000   34.11433    7.78358   37.64480
    4881      444        3     0.00000   34.75129   23.33787   47.90418
    4882      444        3     0.00000   34.06912   24.46352   47.22017
    4883      444        3     0.00000   34.75918   10.20155   34.77469
    4884      444        3     0.00000   34.07385   11.33666   34.10461
    4885      444        3     0.00000   44.08954   23.34996   30.96268
    4886      444        3     0.00000   44.76382   24.48639   31.64169
    4887      444        3     0.00000   44.07350   10.19445   44.09401
    4888      444        3     0.00000   44.74463   11.33298   44.77828
    4889      444        3     0.00000   30.98108   10.17552   30.93639
    4890      444        3     0.00000   31.65694   11.31694   31.60936
    4891      444        3     0.00000   44.13318    2.97316   47.88499
    4892      444        3     0.00000   44.79011    1.81860   47.21833
    4893      444        3     0.00000   44.09637   16.07926   34.76338
    4894      444        3     0.00000   44.77355   14.94047   34.09173
    4895      444        3     0.00000   30.95137    2.95423   34.75024
    4896      444        3     0.00000   31.61698    1.81413   34.06491
    4897      444        3     0.00000   34.78573    2.93347   30.97451
    4898      444        3     0.00000   34.11065    1.80046   31.66141
    4899      444        3     0.00000   34.76627   16.08005   44.08875
    4900      444        3     0.00000   34.08121   14.94888   44.76382
    4901      444        3     0.00000   49.62866    4.68503   44.09900
    4902      444        3     0.00000   50.77271    5.36037   44.75988
    4903      444        3     0.00000   36.50706    4.67136   30.95847
    4904      444        3     0.00000   37.64243    5.35432   31.62592
    4905      444        3     0.00000   49.64470   21.61680   34.78468
    4906      444        3     0.00000   50.77771   20.94883   34.09935
    4907      444        3     0.00000   36.48629   21.61128   47.90865
    4908      444        3     0.00000   37.62771   20.93700   47.23936
    4909      444        3     0.00000   36.49891    8.47837   34.76338
    4910      444        3     0.00000   37.63718    7.80751   34.08305
    4911      444        3     0.00000   29.21769    4.68214   34.76627
    4912      444        3     0.00000   28.07758    5.35642   34.09619
    4913      444        3     0.00000   42.41763    4.72210   47.89445
    4914      444        3     0.00000   41.26228    5.38718   47.24751
    4915      444        3     0.00000   29.20638   21.59682   44.08612
    4916      444        3     0.00000   28.07364   20.93069   44.77408
    4917      444        3     0.00000   29.23714    8.45498   30.93902
    4918      444        3     0.00000   28.09388    7.78805   31.61698
    4919      444        3     0.00000   42.35428   21.62364   30.95532
    4920      444        3     0.00000   41.21732   20.94988   31.62802
    4921      444        3     0.00000   44.08717   21.61812   29.23346
    4922      444        3     0.00000   44.76409   20.94120   28.09992
    4923      444        3     0.00000   44.10163    8.47653   42.35322
    4924      444        3     0.00000   44.79064    7.81303   41.22100
    4925      444        3     0.00000   34.78021   17.81294   42.35927
    4926      444        3     0.00000   34.10750   18.49275   41.22495
    4927      444        3     0.00000   34.75392   21.61233   49.63813
    4928      444        3     0.00000   34.08305   20.93595   50.77639
    4929      444        3     0.00000   44.17682    4.73156   49.58608
    4930      444        3     0.00000   44.83454    5.37929   50.74432
    4931      444        3     0.00000   44.09900   17.81873   36.48182
    4932      444        3     0.00000   44.77355   18.48723   37.62035
    4933      444        3     0.00000   29.22478   17.81110   47.90418
    4934      444        3     0.00000   28.08599   18.48171   47.22937
    4935      444        3     0.00000   42.36584   17.81610   34.75760
    4936      444        3     0.00000   41.22521   18.49275   34.08515
    4937      444        3     0.00000   42.35480    8.44236   44.06457
    4938      444        3     0.00000   41.21522    7.74258   44.71651
    4939      444        3     0.00000   49.64522    8.45918   47.90418
    4940      444        3     0.00000   50.78559    7.77859   47.23830
    4941      444        3     0.00000   49.63865   17.81110   30.96741
    4942      444        3     0.00000   50.77666   18.49012   31.63749
    4943      444        3     0.00000   36.50233   17.80427   44.09611
    4944      444        3     0.00000   37.63218   18.48039   44.78091
    4945      444        3     0.00000   47.90234    2.94740   44.11557
    4946      444        3     0.00000   47.23883    1.79888   44.78459
    4947      444        3     0.00000   47.91338   16.07216   30.95926
    4948      444        3     0.00000   47.23357   14.94047   31.63906
    4949      444        3     0.00000   30.95584   16.08346   47.90759
    4950      444        3     0.00000   31.62934   14.95151   47.23068
    4951      444        3     0.00000   47.91180   23.34550   34.77915
    4952      444        3     0.00000   47.23725   24.48061   34.09357
    4953      444        3     0.00000   47.91180   10.19050   47.89130
    4954      444        3     0.00000   47.23331   11.32772   47.21780
    4955      444        3     0.00000   30.94349   23.31421   44.07272
    4956      444        3     0.00000   31.62697   24.44275   44.73990
    4957      444        3     0.00000   47.89839   17.80479   49.64891
    4958      444        3     0.00000   47.22017   18.47882   50.78822
    4959      444        3     0.00000   47.92021    4.67294   36.49917
    4960      444        3     0.00000   47.25355    5.35485   37.63612
    4961      444        3     0.00000   30.96557   21.61339   36.49786
    4962      444        3     0.00000   31.64222   20.93910   37.63192
    4963      444        3     0.00000   47.93152    8.50072   29.21322
    4964      444        3     0.00000   47.25355    7.81276   28.08573
    4965      444        3     0.00000   47.84924   21.55135   42.42998
    4966      444        3     0.00000   47.18836   20.89021   41.27647
    4967      444        3     0.00000   30.95558   17.79691   29.22584
    4968      444        3     0.00000   31.63538   18.47382   28.09046
    4969      444        3     0.00000   44.11004    2.94030   30.94506
    4970      444        3     0.00000   44.78906    1.80125   31.62014
    4971      444        3     0.00000   44.08271   16.06164   44.10190
    4972      444        3     0.00000   44.76014   14.92916   44.78091
    4973      444        3     0.00000   34.75655    2.86932   47.86475
    4974      444        3     0.00000   34.07254    1.75445   47.17259
    4975      444        3     0.00000   34.76470   10.22363   44.11557
    4976      444        3     0.00000   34.08594   11.36058   44.78144
    4977      444        3     0.00000   44.10032   23.34891   47.91338
    4978      444        3     0.00000   44.77460   24.48876   47.23830
    4979      444        3     0.00000   44.11925   10.18919   34.76338
    4980      444        3     0.00000   44.78670   11.33429   34.09409
    4981      444        3     0.00000   29.22978   21.61917   34.77206
    4982      444        3     0.00000   28.09230   20.94541   34.09094
    4983      444        3     0.00000   42.37347   21.61260   47.91653
    4984      444        3     0.00000   41.23126   20.93437   47.24619
    4985      444        3     0.00000   29.18115    4.59644   44.06036
    4986      444        3     0.00000   28.06812    5.28545   44.76672
    4987      444        3     0.00000   49.61841   21.58841   44.11662
    4988      444        3     0.00000   50.76562   20.92175   44.77881
    4989      444        3     0.00000   36.48261   21.62653   30.95190
    4990      444        3     0.00000   37.61720   20.95146   31.63170
    4991      444        3     0.00000   36.54334    4.53282   47.90102
    4992      444        3     0.00000   37.67082    5.20737   47.19703
    4993      444        3     0.00000   35.99944    5.06594   49.09160
    4994      444        4     0.00000   36.48419    5.90163   49.57688
    4995      444        3     0.00000   35.91085   18.36841   35.91321
    4996      444        4     0.00000   36.33277   19.27297   36.33671
    4997      444        3     0.00000   42.95679   21.05556   49.07110
    4998      444        4     0.00000   42.54092   20.14836   49.49065
    4999      444        3     0.00000   42.94786    7.90503   35.90927
    5000      444        4     0.00000   42.52199    7.00205   36.33172
    5001      444        3     0.00000   29.81416   21.04872   35.91716
    5002      444        4     0.00000   29.39434   20.13916   36.33251
    5003      444        3     0.00000   42.95627    5.23734   29.79392
    5004      444        4     0.00000   42.53645    6.14348   29.37200
    5005      444        3     0.00000   42.92998   18.35369   42.94733
    5006      444        4     0.00000   42.51095   19.25983   42.52699
    5007      444        3     0.00000   29.80943   18.36762   29.80680
    5008      444        4     0.00000   29.39934   19.27876   29.39224
    5009      444        3     0.00000   35.90953   21.06187   29.79839
    5010      444        4     0.00000   36.33303   20.15756   29.38146
    5011      444        3     0.00000   35.91085    7.92317   42.98282
    5012      444        4     0.00000   36.33566    7.02018   42.56037
    5013      444        3     0.00000   49.07478    9.64582   31.51420
    5014      444        4     0.00000   49.48855   10.06012   32.42691
    5015      444        3     0.00000   49.06084   22.75875   44.66446
    5016      444        4     0.00000   49.51247   23.20591   45.54221
    5017      444        3     0.00000   35.90454    9.63793   44.69653
    5018      444        4     0.00000   36.31305   10.05170   45.61030
    5019      444        3     0.00000   49.04849   16.66600   47.34319
    5020      444        4     0.00000   49.47094   16.25433   46.43442
    5021      444        3     0.00000   49.05348    3.51390   34.20187
    5022      444        4     0.00000   49.46936    3.09014   33.29599
    5023      444        3     0.00000   35.92005    3.42505   47.31007
    5024      444        4     0.00000   36.31489    3.02258   46.38631
    5025      444        3     0.00000   29.78235   16.64129   31.50684
    5026      444        4     0.00000   29.35386   16.21122   32.40431
    5027      444        3     0.00000   29.72715    3.41217   44.58507
    5028      444        4     0.00000   29.28262    2.96317   45.46229
    5029      444        3     0.00000   29.80706    9.63846   47.34004
    5030      444        4     0.00000   29.38567   10.06117   46.43574
    5031      444        3     0.00000   29.81179   22.77058   34.21081
    5032      444        4     0.00000   29.39355   23.19092   33.30467
    5033      444        3     0.00000   31.52576   22.76611   35.92478
    5034      444        4     0.00000   32.42823   23.18803   36.34828
    5035      444        3     0.00000   44.66288   22.77689   49.06926
    5036      444        4     0.00000   45.56639   23.20223   49.48907
    5037      444        3     0.00000   44.67129    9.61138   35.91900
    5038      444        4     0.00000   45.57191   10.03514   36.34460
    5039      444        3     0.00000   47.29666   22.71143   43.00438
    5040      444        4     0.00000   46.38973   23.13046   42.58955
    5041      444        3     0.00000   47.36028    9.64398   29.79944
    5042      444        4     0.00000   46.45177   10.06169   29.38304
    5043      444        3     0.00000   34.19372   22.77294   29.78445
    5044      444        4     0.00000   33.29021   23.19355   29.35964
    5045      444        3     0.00000   31.48370    3.45528   42.91526
    5046      444        4     0.00000   32.39879    3.04729   42.50412
    5047      444        3     0.00000   44.66288    3.51311   29.78551
    5048      444        4     0.00000   45.56219    3.08646   29.35806
    5049      444        3     0.00000   47.35134    3.51916   35.92767
    5050      444        4     0.00000   46.44704    3.10092   36.35354
    5051      444        3     0.00000   34.19819    3.44766   49.01957
    5052      444        4     0.00000   33.26734    3.06044   49.41415
    5053      444        3     0.00000   31.54285    9.58720   29.78813
    5054      444        4     0.00000   32.44847   10.00439   29.36621
    5055      444        3     0.00000   44.64658    9.63005   42.94050
    5056      444        4     0.00000   45.54747   10.06327   42.52462
    5057      444        3     0.00000   47.35345   16.64944   29.80496
    5058      444        4     0.00000   46.45072   16.22673   29.37831
    5059      444        3     0.00000   34.21107   16.66206   42.93524
    5060      444        4     0.00000   33.30545   16.24592   42.51069
    5061      444        3     0.00000   34.22579    3.50207   29.81074
    5062      444        4     0.00000   33.32859    3.07148   29.38514
    5063      444        3     0.00000   31.51499   16.65891   49.06111
    5064      444        4     0.00000   32.41955   16.23593   49.48303
    5065      444        3     0.00000   31.51867    3.53467   35.90270
    5066      444        4     0.00000   32.42744    3.11774   36.31752
    5067      444        3     0.00000   44.65946   16.66259   35.90953
    5068      444        4     0.00000   45.56350   16.24198   36.33303
    5069      444        3     0.00000   47.34977    9.61664   49.04507
    5070      444        4     0.00000   46.43810   10.03094   49.45621
    5071      444        3     0.00000   34.20450    9.61480   35.92583
    5072      444        4     0.00000   33.29757   10.03067   36.34670
    5073      444        3     0.00000   35.90507   22.76006   47.34267
    5074      444        4     0.00000   36.32620   23.17804   46.43705
    5075      444        3     0.00000   35.91427    9.63110   34.20687
    5076      444        4     0.00000   36.32961   10.05775   33.30020
    5077      444        3     0.00000   42.93603   22.77268   31.52130
    5078      444        4     0.00000   42.51595   23.19066   32.42718
    5079      444        3     0.00000   42.92288    9.59614   44.64553
    5080      444        4     0.00000   42.49492   10.00544   45.55325
    5081      444        3     0.00000   29.82178    9.60665   31.49685
    5082      444        4     0.00000   29.39907   10.03488   32.39800
    5083      444        3     0.00000   42.97230    3.55097   47.34030
    5084      444        4     0.00000   42.52331    3.11301   46.45729
    5085      444        3     0.00000   42.94602   16.66180   34.19714
    5086      444        4     0.00000   42.52699   16.24329   33.29073
    5087      444        3     0.00000   29.79812    3.53415   34.19688
    5088      444        4     0.00000   29.37252    3.11406   33.29441
    5089      444        3     0.00000   35.93661    3.51890   31.52682
    5090      444        4     0.00000   36.36169    3.09908   32.43007
    5091      444        3     0.00000   35.91979   16.65181   44.65289
    5092      444        4     0.00000   36.33934   16.22437   45.55535
    5093      444        3     0.00000   49.04008    5.24391   42.95233
    5094      444        4     0.00000   49.46042    6.14559   42.52304
    5095      444        3     0.00000   49.06295   18.37025   29.81416
    5096      444        4     0.00000   49.48408   19.27429   29.39224
    5097      444        3     0.00000   35.92347    5.22971   29.80548
    5098      444        4     0.00000   36.33803    6.13691   29.38567
    5099      444        3     0.00000   49.06768   21.05635   35.93950
    5100      444        4     0.00000   49.49328   20.15309   36.35932
    5101      444        3     0.00000   49.06742    7.90661   49.05979
    5102      444        4     0.00000   49.48671    7.00257   49.48408
    5103      444        3     0.00000   35.92662    7.90845   35.91479
    5104      444        4     0.00000   36.35301    7.00362   36.32988
    5105      444        3     0.00000   29.79812    5.24417   35.91663
    5106      444        4     0.00000   29.37778    6.14953   36.33855
    5107      444        3     0.00000   29.80312   18.37524   49.05559
    5108      444        4     0.00000   29.38435   19.28139   49.47514
    5109      444        3     0.00000   29.77893   21.02533   42.93419
    5110      444        4     0.00000   29.35622   20.11892   42.51936
    5111      444        3     0.00000   29.81784    7.88322   29.79129
    5112      444        4     0.00000   29.39198    6.97891   29.37463
    5113      444        3     0.00000   42.93340   21.05819   29.80706
    5114      444        4     0.00000   42.51411   20.15441   29.38199
    5115      444        3     0.00000   42.95259    7.89557   42.91841
    5116      444        4     0.00000   42.54723    6.98627   42.49281
    5117      444        3     0.00000   35.93056   18.37077   42.94286
    5118      444        4     0.00000   36.35222   19.27771   42.52699
    5119      444        3     0.00000   35.90244   21.04793   49.05716
    5120      444        4     0.00000   36.32252   20.14310   49.47830
    5121      444        3     0.00000   43.03119    5.30648   49.01142
    5122      444        4     0.00000   42.62636    6.22366   49.42204
    5123      444        3     0.00000   42.94681   18.38050   35.90717
    5124      444        4     0.00000   42.52488   19.28375   36.33224
    5125      444        3     0.00000   29.80654   16.66259   47.34214
    5126      444        4     0.00000   29.38882   16.24303   46.43495
    5127      444        3     0.00000   29.79287   22.74561   44.64185
    5128      444        4     0.00000   29.37962   23.16963   45.54904
    5129      444        3     0.00000   49.06374    9.60718   47.33110
    5130      444        4     0.00000   49.48303   10.02279   46.42285
    5131      444        3     0.00000   49.06295   22.76532   34.21870
    5132      444        4     0.00000   49.47567   23.17962   33.30624
    5133      444        3     0.00000   49.06163   16.65601   31.52524
    5134      444        4     0.00000   49.48171   16.23646   32.42875
    5135      444        3     0.00000   49.05664    3.53125   44.66893
    5136      444        4     0.00000   49.48697    3.11038   45.56955
    5137      444        3     0.00000   47.32295    3.53257   42.97572
    5138      444        4     0.00000   46.41497    3.11144   42.56221
    5139      444        3     0.00000   44.72150    3.56858   49.01484
    5140      444        4     0.00000   45.62738    3.14587   49.43098
    5141      444        3     0.00000   47.35055   22.76926   35.93477
    5142      444        4     0.00000   46.44678   23.19119   36.35590
    5143      444        3     0.00000   34.19162   22.76480   49.05927
    5144      444        4     0.00000   33.28837   23.18777   49.48277
    5145      444        3     0.00000   31.49895   22.73115   42.92157
    5146      444        4     0.00000   32.40431   23.14807   42.49860
    5147      444        3     0.00000   44.65420   22.76795   29.81311
    5148      444        4     0.00000   45.56061   23.18935   29.39119
    5149      444        3     0.00000   47.33715   16.65444   49.06137
    5150      444        4     0.00000   46.43021   16.22936   49.47593
    5151      444        3     0.00000   34.19767   16.65207   35.90507
    5152      444        4     0.00000   33.29231   16.23278   36.32593
    5153      444        3     0.00000   31.52839    9.62952   49.04954
    5154      444        4     0.00000   32.43243   10.05197   49.47015
    5155      444        3     0.00000   34.20766    9.64687   42.96047
    5156      444        4     0.00000   33.31150   10.07536   42.52699
    5157      444        3     0.00000   31.50684   16.63656   29.80075
    5158      444        4     0.00000   32.41219   16.21411   29.38120
    5159      444        3     0.00000   44.63554   16.62999   42.94050
    5160      444        4     0.00000   45.53275   16.20123   42.51200
    5161      444        3     0.00000   42.96521    3.52862   31.51472
    5162      444        4     0.00000   42.54828    3.11380   32.42323
    5163      444        3     0.00000   42.93708   16.64681   44.66840
    5164      444        4     0.00000   42.51963   16.22962   45.57638
    5165      444        3     0.00000   35.91006   16.66048   34.19215
    5166      444        4     0.00000   36.33119   16.24250   33.28705
    5167      444        3     0.00000   35.89665   22.77663   31.51052
    5168      444        4     0.00000   36.30753   23.19408   32.42087
    5169      444        3     0.00000   42.95154   22.76296   47.34898
    5170      444        4     0.00000   42.53040   23.17909   46.44073
    5171      444        3     0.00000   42.97598    9.60665   34.18636
    5172      444        4     0.00000   42.56589   10.01990   33.27365
    5173      444        3     0.00000   29.81337    7.91608   49.04560
    5174      444        4     0.00000   29.38698    7.01545   49.46962
    5175      444        3     0.00000   29.78813    5.18687   42.93235
    5176      444        4     0.00000   29.38961    6.11535   42.53698
    5177      444        3     0.00000   49.01090   20.99983   42.99465
    5178      444        4     0.00000   49.42309   20.08842   42.58114
    5179      444        3     0.00000   49.09318    7.95078   29.78288
    5180      444        4     0.00000   49.52220    7.05436   29.35386
    5181      444        3     0.00000   49.06584    5.23366   35.91032
    5182      444        4     0.00000   49.48934    6.13849   36.32751
    5183      444        3     0.00000   49.05138   18.36762   49.07294
    5184      444        4     0.00000   49.46857   19.27035   49.49854
    5185      481        5     0.00000   36.11274   13.50015   38.44185
    5186      481        6     0.00000   35.53467   14.23095   38.10641
    5187      481        6     0.00000   36.12115   13.62081   39.42475
    5188      482        5     0.00000   41.70680    2.81649   36.34539
    5189      482        6     0.00000   41.64003    2.64377   37.31804
    5190      482        6     0.00000   42.46390    3.44897   36.25653
    5191      483        5     0.00000   50.30558   23.43619   50.53638
    5192      483        6     0.00000   50.88654   22.63967   50.62629
    5193      483        6     0.00000   49.40863   23.06684   50.33739
    5194      484        5     0.00000   38.21656   24.90831   27.92380
    5195      484        6     0.00000   38.36062   24.80710   26.94930
    5196      484        6     0.00000   38.70814   24.14964   28.32837
    5197      485        5     0.00000   48.56190    9.73914   42.93366
    5198      485        6     0.00000   48.10843   10.43472   43.47283
    5199      485        6     0.00000   48.65417    8.96917   43.54906
    5200      486        5     0.00000   26.97165   21.20960   38.52649
    5201      486        6     0.00000   27.75608   21.43568   37.96656
    5202      486        6     0.00000   26.76503   20.26955   38.29490
    5203      487        5     0.00000   39.47444    2.37958   42.60979
    5204      487        6     0.00000   39.66581    1.68584   41.92973
    5205      487        6     0.00000   39.92922    3.19161   42.27147
    5206      488        5     0.00000   31.41036    0.89773   50.11341
    5207      488        6     0.00000   32.14090    1.13800   50.73722
    5208      488        6     0.00000   31.15905    1.75288   49.68177
    5209      489        5     0.00000   28.90328   16.23041   26.57155
    5210      489        6     0.00000   29.83387   16.56401   26.51608
    5211      489        6     0.00000   28.35045   17.04849   26.64910
    5212      490        5     0.00000   40.91606   11.85768   34.94556
    5213      490        6     0.00000   41.66632   11.83166   35.59145
    5214      490        6     0.00000   40.10219   11.85216   35.50864
    5215      491        5     0.00000   48.76116   16.18967   41.96075
    5216      491        6     0.00000   47.98620   16.66574   42.35007
    5217      491        6     0.00000   48.53325   16.09214   41.00203
    5218      492        5     0.00000   37.31857   25.82076   33.66323
    5219      492        6     0.00000   37.95736   26.55867   33.49736
    5220      492        6     0.00000   37.74154   25.02924   33.24526
    5221      493        5     0.00000   40.18947   15.67968   50.19359
    5222      493        6     0.00000   39.66502   15.78063   49.35974
    5223      493        6     0.00000   40.17580   16.58030   50.60447
    5224      494        5     0.00000   50.56662   14.54799   51.62628
    5225      494        6     0.00000   49.99985   15.35844   51.67833
    5226      494        6     0.00000   50.66204   14.37317   50.65626
    5227      495        5     0.00000   26.58627   26.32759   37.27282
    5228      495        6     0.00000   25.67723   26.17118   36.91294
    5229      495        6     0.00000   27.07470   25.48717   37.08513
    5230      496        5     0.00000   27.60045   25.65568   42.04723
    5231      496        6     0.00000   28.07574   24.86625   42.40974
    5232      496        6     0.00000   27.82942   25.66409   41.08404
    5233      497        5     0.00000   52.47039    0.84095   45.84846
    5234      497        6     0.00000   52.27375    1.73132   45.46203
    5235      497        6     0.00000   52.84446    1.03574   46.74462
    5236      498        5     0.00000   51.32318   18.02062   38.64716
    5237      498        6     0.00000   50.51167   17.68571   39.10457
    5238      498        6     0.00000   50.98564   18.43676   37.81436
    5239      499        5     0.00000   40.72548   16.09950   30.64275
    5240      499        6     0.00000   41.40160   16.64708   30.16983
    5241      499        6     0.00000   40.88951   15.17495   30.32888
    5242      500        5     0.00000   49.46857    1.77680   40.91580
    5243      500        6     0.00000   49.43650    1.55335   41.87952
    5244      500        6     0.00000   48.80769    2.50313   40.80040
    5245      501        5     0.00000   39.37559    7.79778   52.26061
    5246      501        6     0.00000   38.64479    7.53832   51.64521
    5247      501        6     0.00000   39.16923    8.73337   52.51087
    5248      502        5     0.00000   36.21868    3.59829   35.45239
    5249      502        6     0.00000   35.30780    3.77231   35.79939
    5250      502        6     0.00000   36.73235    4.41269   35.68346
    5251      503        5     0.00000   34.20871    1.20845   40.22706
    5252      503        6     0.00000   34.60066    2.10829   40.35850
    5253      503        6     0.00000   34.94345    0.58333   40.44998
    5254      504        5     0.00000   50.93070   12.30537   29.15276
    5255      504        6     0.00000   51.16388   12.23833   30.11253
    5256      504        6     0.00000   49.97225   12.55484   29.14697
    5257      505        5     0.00000   45.43338   26.29710   38.30331
    5258      505        6     0.00000   45.66313   25.37203   38.03412
    5259      505        6     0.00000   44.47624   26.25241   38.55383
    5260      506        5     0.00000   26.87281    7.93816   38.26072
    5261      506        6     0.00000   26.66513    7.81119   37.30095
    5262      506        6     0.00000   27.84782    8.11008   38.28359
    5263      507        5     0.00000   34.93057   23.87677   39.41949
    5264      507        6     0.00000   35.07410   24.04712   40.38426
    5265      507        6     0.00000   34.50918   24.70642   39.08064
    5266      508        5     0.00000   43.18103   13.12791   30.44402
    5267      508        6     0.00000   42.63004   13.03722   29.62962
    5268      508        6     0.00000   43.55195   14.04326   30.38303
    5269      509        5     0.00000   42.28540   24.02714   26.44720
    5270      509        6     0.00000   43.20022   23.70196   26.64331
    5271      509        6     0.00000   41.77358   23.84313   27.27501
    5272      510        5     0.00000   30.44323   17.17993   35.21843
    5273      510        6     0.00000   29.77289   16.50565   35.49445
    5274      510        6     0.00000   30.88960   16.77615   34.43268
    5275      511        5     0.00000   40.21392   24.99769   40.78068
    5276      511        6     0.00000   39.23180   25.08391   40.87295
    5277      511        6     0.00000   40.54146   24.88334   41.70786
    5278      512        5     0.00000   37.65584   16.79613   39.71418
    5279      512        6     0.00000   38.48496   16.27747   39.55803
    5280      512        6     0.00000   37.23129   16.35791   40.49414
    5281      513        5     0.00000   27.92169   13.62528   46.67364
    5282      513        6     0.00000   27.34730   12.90158   47.03010
    5283      513        6     0.00000   27.51081   13.86345   45.80456
    5284      514        5     0.00000   34.40324    8.39846   30.77078
    5285      514        6     0.00000   35.20765    8.84693   30.40695
    5286      514        6     0.00000   34.69898    8.01965   31.63644
    5287      515        5     0.00000   30.77577   14.32953   39.77727
    5288      515        6     0.00000   30.67877   13.38554   40.05961
    5289      515        6     0.00000   31.75315   14.46308   39.69000
    5290      516        5     0.00000   38.85062    9.87689   41.31696
    5291      516        6     0.00000   39.26098   10.69918   40.94892
    5292      516        6     0.00000   38.84011    9.24335   40.55592
    5293      517        5     0.00000   39.77990   18.34895   27.39988
    5294      517        6     0.00000   40.52096   19.00247   27.33521
    5295      517        6     0.00000   39.64373   18.22435   28.37253
    5296      518        5     0.00000   36.29965   16.30402   29.48714
    5297      518        6     0.00000   37.18161   16.60160   29.14881
    5298      518        6     0.00000   35.64219   16.80927   28.94561
    5299      519        5     0.00000   30.57861    3.62878   29.74239
    5300      519        6     0.00000   30.83571    2.82279   29.22741
    5301      519        6     0.00000   29.58992    3.59802   29.77420
    5302      520        5     0.00000   51.61498   24.67961   31.99316
    5303      520        6     0.00000   51.51456   25.57234   32.40983
    5304      520        6     0.00000   52.44962   24.31578   32.38249
    5305      521        5     0.00000   39.00546   11.18629   31.53181
    5306      521        6     0.00000   38.94868   10.49282   30.82729
    5307      521        6     0.00000   39.17896   12.02803   31.03996
    5308      522        5     0.00000   52.30425   11.44812   49.93387
    5309      522        6     0.00000   52.92149   12.16446   50.22855
    5310      522        6     0.00000   52.77769   10.60664   50.15363
    5311      523        5     0.00000   40.87716   12.21704   38.53701
    5312      523        6     0.00000   40.53778   11.51463   37.92766
    5313      523        6     0.00000   40.90108   11.78066   39.42502
    5314      524        5     0.00000   50.37550   12.82955   36.45685
    5315      524        6     0.00000   51.30977   12.66262   36.73971
    5316      524        6     0.00000   49.82372   12.37371   37.14086
    5317      525        5     0.00000   37.86509   22.24640   51.23512
    5318      525        6     0.00000   37.20290   22.95170   51.44595
    5319      525        6     0.00000   37.71446   21.55108   51.92360
    5320      526        5     0.00000   27.78631    2.36512   51.01614
    5321      526        6     0.00000   26.95850    2.78547   51.36104
    5322      526        6     0.00000   28.50344    3.01180   51.23538
    5323      527        5     0.00000   28.34467   17.12420   38.57697
    5324      527        6     0.00000   27.69010   16.40023   38.41109
    5325      527        6     0.00000   28.88541   17.16442   37.74864
    5326      528        5     0.00000   50.20463    9.18420   40.14872
    5327      528        6     0.00000   50.51535    9.92684   39.57170
    5328      528        6     0.00000   49.32504    8.92790   39.77307
    5329      529        5     0.00000   52.45672    6.67581   26.97270
    5330      529        6     0.00000   51.99589    7.34642   27.53763
    5331      529        6     0.00000   52.63048    7.14689   26.11913
    5332      530        5     0.00000   43.17525   11.90973   26.83837
    5333      530        6     0.00000   42.94496   11.05616   26.39226
    5334      530        6     0.00000   42.36821   12.47256   26.72822
    5335      531        5     0.00000   27.24767    1.86171   31.05994
    5336      531        6     0.00000   28.17695    2.03205   31.35516
    5337      531        6     0.00000   26.69037    2.42138   31.65720
    5338      532        5     0.00000   39.72181    1.48632   52.51192
    5339      532        6     0.00000   40.09325    2.33621   52.16834
    5340      532        6     0.00000   39.88374    0.83464   51.78453
    5341      533        5     0.00000   52.00956   15.54456   36.50785
    5342      533        6     0.00000   51.16283   15.73620   36.98418
    5343      533        6     0.00000   52.41518   16.43414   36.35196
    5344      534        5     0.00000   40.91370   23.29213   43.88607
    5345      534        6     0.00000   40.13821   23.43382   44.48517
    5346      534        6     0.00000   40.72627   22.43199   43.43287
    5347      535        5     0.00000   30.68771   10.66921   39.41371
    5348      535        6     0.00000   29.86200   10.34560   38.97313
    5349      535        6     0.00000   31.31625   10.84166   38.66819
    5350      536        5     0.00000   42.85375    2.01208   42.24728
    5351      536        6     0.00000   42.79933    1.02865   42.35033
    5352      536        6     0.00000   43.61767    2.28021   42.81747
    5353      537        5     0.00000   27.12491   21.30503   28.12201
    5354      537        6     0.00000   26.63096   21.74062   27.38253
    5355      537        6     0.00000   26.45220   20.73090   28.56759
    5356      538        5     0.00000   50.58817   20.08001   26.75635
    5357      538        6     0.00000   51.44752   19.74248   26.39910
    5358      538        6     0.00000   50.41861   20.91439   26.25110
    5359      539        5     0.00000   48.02142   24.73665   27.95455
    5360      539        6     0.00000   47.92468   25.62098   27.51949
    5361      539        6     0.00000   47.39077   24.14938   27.46665
    5362      540        5     0.00000   41.31065   22.03794   39.92843
    5363      540        6     0.00000   41.42605   21.21276   39.39373
    5364      540        6     0.00000   40.87637   21.73484   40.76491
    5365      541        5     0.00000   38.78885   13.89473   44.02750
    5366      541        6     0.00000   39.77175   13.77328   44.04801
    5367      541        6     0.00000   38.59905   14.51197   44.77828
    5368      542        5     0.00000   30.38986   11.67577   27.79078
    5369      542        6     0.00000   30.61173   11.84322   26.84073
    5370      542        6     0.00000   29.42431   11.45574   27.78736
    5371      543        5     0.00000   47.53851   14.04457   26.66066
    5372      543        6     0.00000   46.62264   14.28669   26.37228
    5373      543        6     0.00000   47.54771   13.05431   26.65830
    5374      544        5     0.00000   41.54934   16.39603   38.42949
    5375      544        6     0.00000   42.01805   17.21700   38.72392
    5376      544        6     0.00000   40.88505   16.71306   37.76704
    5377      545        5     0.00000   44.86582    1.89404   52.49930
    5378      545        6     0.00000   44.43181    2.09777   51.63312
    5379      545        6     0.00000   44.15894    1.45083   53.03242
    5380      546        5     0.00000   29.57362   24.21799   49.00459
    5381      546        6     0.00000   29.05260   23.53766   49.50117
    5382      546        6     0.00000   30.49528   24.13045   49.35580
    5383      547        5     0.00000   37.09380   25.62045   38.08644
    5384      547        6     0.00000   36.89796   26.58259   37.95762
    5385      547        6     0.00000   37.02151   25.22876   37.18003
    5386      548        5     0.00000   45.65814   12.70967   50.53481
    5387      548        6     0.00000   46.16313   12.04590   51.06819
    5388      548        6     0.00000   44.95941   12.17813   50.07714
    5389      549        5     0.00000   28.02606   10.40291   35.56753
    5390      549        6     0.00000   27.51502   10.22967   36.39796
    5391      549        6     0.00000   27.44457   11.00674   35.04046
    5392      550        5     0.00000   28.26764    9.30697   41.55512
    5393      550        6     0.00000   28.19588    8.68526   42.32273
    5394      550        6     0.00000   27.72664    8.88373   40.84220
    5395      551        5     0.00000   49.35395   23.13309   40.32406
    5396      551        6     0.00000   48.86789   23.76820   40.90818
    5397      551        6     0.00000   48.66521   22.79818   39.69709
    5398      552        5     0.00000   42.19445    3.62642   51.55925
    5399      552        6     0.00000   41.96548    3.20923   50.68991
    5400      552        6     0.00000   41.65318    4.45448   51.58711
    5401      553        5     0.00000   37.32225    0.22292   30.51315
    5402      553        6     0.00000   36.68240   -0.46083   30.83439
    5403      553        6     0.00000   36.76153    0.87486   30.02288
    5404      554        5     0.00000   44.36767   13.09742   40.11218
    5405      554        6     0.00000   45.30246   12.84926   40.32485
    5406      554        6     0.00000   43.88239   12.23465   40.08248
    5407      555        5     0.00000   40.39241   23.48903   37.39165
    5408      555        6     0.00000   39.42738   23.60285   37.20158
    5409      555        6     0.00000   40.61428   24.23455   38.00415
    5410      556        5     0.00000   50.81030   25.47455   43.19417
    5411      556        6     0.00000   50.44963   26.29789   43.60979
    5412      556        6     0.00000   51.57029   25.21719   43.77435
    5413      557        5     0.00000   36.92109    8.73836   49.11079
    5414      557        6     0.00000   36.30359    8.12217   48.64260
    5415      557        6     0.00000   37.57382    8.14531   49.56084
    5416      558        5     0.00000   28.04367    2.66402   27.84651
    5417      558        6     0.00000   27.76160    3.55412   27.51581
    5418      558        6     0.00000   27.27895    2.06833   27.64646
    5419      559        5     0.00000   36.71684    2.82095   51.58448
    5420      559        6     0.00000   37.24838    2.07674   51.20462
    5421      559        6     0.00000   36.46894    2.51312   52.49247
    5422      560        5     0.00000   39.50598   11.08298   46.16786
    5423      560        6     0.00000   39.78358   12.01541   46.35056
    5424      560        6     0.00000   38.53464   11.07167   46.35897
    5425      561        5     0.00000   34.31544   11.19812   26.64279
    5426      561        6     0.00000   35.02968   10.69891   27.11360
    5427      561        6     0.00000   33.71660   11.51515   27.36492
    5428      562        5     0.00000   47.05429   18.65994   44.40210
    5429      562        6     0.00000   47.26407   19.24958   45.16918
    5430      562        6     0.00000   47.86790   18.10763   44.28828
    5431      563        5     0.00000   51.14101   15.31007   28.56916
    5432      563        6     0.00000   51.23196   16.15707   28.06470
    5433      563        6     0.00000   51.10420   15.58767   29.51868
    5434      564        5     0.00000   30.97372   26.21745   36.99943
    5435      564        6     0.00000   31.94768   26.05814   37.08171
    5436      564        6     0.00000   30.55653   25.42618   37.42372
    5437      565        5     0.00000   40.96312   25.11178   48.43414
    5438      565        6     0.00000   40.41213   25.92776   48.53850
    5439      565        6     0.00000   40.81302   24.60074   49.26878
    5440      566        5     0.00000   36.63482   13.81403   47.89682
    5441      566        6     0.00000   36.82698   13.84295   48.86763
    5442      566        6     0.00000   37.26967   13.14526   47.53641
    5443      567        5     0.00000   47.38867    5.70237   31.13250
    5444      567        6     0.00000   46.54562    5.44580   31.58281
    5445      567        6     0.00000   47.49593    5.03939   30.40485
    5446      568        5     0.00000   40.71076   11.04460   28.78315
    5447      568        6     0.00000   40.72311   12.02172   28.62463
    5448      568        6     0.00000   41.55854   10.85638   29.25896
    5449      569        5     0.00000   32.19768    4.72972   46.71623
    5450      569        6     0.00000   31.45452    5.10721   46.18311
    5451      569        6     0.00000   31.98133    3.76732   46.79378
    5452      570        5     0.00000   47.44913   10.98019   38.45447
    5453      570        6     0.00000   48.08635   11.31773   39.13322
    5454      570        6     0.00000   47.88341   10.16921   38.08828
    5455      571        5     0.00000   47.97936   25.67408   50.52561
    5456      571        6     0.00000   48.70543   26.32838   50.36578
    5457      571        6     0.00000   47.97805   25.10284   49.71673
    5458      572        5     0.00000   40.56249   25.57708   31.89642
    5459      572        6     0.00000   40.44446   25.73480   30.92614
    5460      572        6     0.00000   40.02306   24.76820   32.08359
    5461      573        5     0.00000   42.31905   17.08135   52.41544
    5462      573        6     0.00000   42.80643   16.44019   51.83974
    5463      573        6     0.00000   42.11269   17.84370   51.81792
    5464      574        5     0.00000   40.12348    2.54519   29.50344
    5465      574        6     0.00000   40.28226    2.34777   30.46058
    5466      574        6     0.00000   40.12716    3.53388   29.44902
    5467      575        5     0.00000   43.73649   23.63834   42.97888
    5468      575        6     0.00000   43.87188   24.61520   42.89055
    5469      575        6     0.00000   43.90132   23.28214   42.07010
    5470      576        5     0.00000   32.97633   18.42519   32.39432
    5471      576        6     0.00000   33.17875   17.46384   32.27260
    5472      576        6     0.00000   32.06046   18.44122   32.77050
    5473      444        1     0.00000   34.57621   32.64537   24.93591
    5474      444        1     0.00000   34.55150   45.84426   11.82035
    5475      444        1     0.00000   47.72936   32.73317   11.82403
    5476      444        1     0.00000   47.70045   45.84767   24.98691
    5477      444        1     0.00000   44.31614   46.15761   24.98271
    5478      444        1     0.00000   44.29485   32.97554   11.81405
    5479      444        1     0.00000   31.16667   46.13737   11.81536
    5480      444        1     0.00000   31.17771   32.97843   24.93512
    5481      444        1     0.00000   44.31167   32.72449    1.30940
    5482      444        1     0.00000   44.27829   45.83585   14.46229
    5483      444        1     0.00000   31.17719   32.69558   14.47570
    5484      444        1     0.00000   31.16115   45.84873    1.32202
    5485      444        1     0.00000   34.56806   46.13763    1.32412
    5486      444        1     0.00000   34.54914   33.01156   14.48858
    5487      444        1     0.00000   47.67652   46.10240   14.49725
    5488      444        1     0.00000   47.74014   33.01734    1.31939
    5489      444        1     0.00000   51.26035   34.58384    6.43081
    5490      444        1     0.00000   51.25273   47.69677   19.56871
    5491      444        1     0.00000   38.09064   34.54914   19.64547
    5492      444        1     0.00000   38.09380   47.71412    6.43344
    5493      444        1     0.00000   51.25273   44.30352   19.88075
    5494      444        1     0.00000   51.24458   31.15589    6.69763
    5495      444        1     0.00000   38.10063   44.30379    6.70657
    5496      444        1     0.00000   38.12245   31.04180   19.79584
    5497      444        1     0.00000   27.60492   44.30563    6.42213
    5498      444        1     0.00000   27.60860   31.11068   19.58159
    5499      444        1     0.00000   40.75150   44.29117   19.58659
    5500      444        1     0.00000   40.76123   31.16693    6.42345
    5501      444        1     0.00000   27.62727   34.56333   19.82686
    5502      444        1     0.00000   27.60992   47.72411    6.71892
    5503      444        1     0.00000   40.75965   34.58016    6.70972
    5504      444        1     0.00000   40.74861   47.69046   19.86997
    5505      444        1     0.00000   32.73343   51.25378    8.29962
    5506      444        1     0.00000   32.71450   38.12613   21.41465
    5507      444        1     0.00000   45.86450   51.25142   21.42516
    5508      444        1     0.00000   45.87370   38.10825    8.27964
    5509      444        1     0.00000   46.14131   51.23722   18.02824
    5510      444        1     0.00000   46.14788   38.10510    4.87930
    5511      444        1     0.00000   32.96844   51.25352    4.84749
    5512      444        1     0.00000   32.99789   38.12114   18.01089
    5513      444        1     0.00000   32.67744   27.54867   17.96594
    5514      444        1     0.00000   32.69847   40.73336    4.87351
    5515      444        1     0.00000   45.87712   27.60939    4.85564
    5516      444        1     0.00000   45.84531   40.73573   18.01694
    5517      444        1     0.00000   46.13369   27.60966    8.28936
    5518      444        1     0.00000   46.13080   40.75282   21.41439
    5519      444        1     0.00000   32.98579   27.56733   21.35498
    5520      444        1     0.00000   33.00420   40.74335    8.26018
    5521      444        1     0.00000   32.72265   34.52285    1.28101
    5522      444        1     0.00000   32.69190   47.66575   14.45624
    5523      444        1     0.00000   45.88080   34.58068   14.46203
    5524      444        1     0.00000   45.85635   47.70097    1.34331
    5525      444        1     0.00000   46.15498   44.30904    1.33043
    5526      444        1     0.00000   46.12896   31.14459   14.46807
    5527      444        1     0.00000   33.02181   44.30089   14.45782
    5528      444        1     0.00000   33.01629   31.12987    1.31492
    5529      444        1     0.00000   32.71766   44.28933   24.96614
    5530      444        1     0.00000   32.70241   31.17088   11.83061
    5531      444        1     0.00000   45.85766   44.28959   11.80984
    5532      444        1     0.00000   45.91865   31.18402   24.93644
    5533      444        1     0.00000   46.16576   34.57884   24.97692
    5534      444        1     0.00000   46.14657   47.69966   11.85164
    5535      444        1     0.00000   33.02812   34.54756   11.83718
    5536      444        1     0.00000   32.99526   47.69440   24.96982
    5537      444        1     0.00000   34.54467   51.21593   19.83816
    5538      444        1     0.00000   34.54835   38.10563    6.73049
    5539      444        1     0.00000   47.71359   51.24221    6.71419
    5540      444        1     0.00000   47.70123   38.09853   19.84211
    5541      444        1     0.00000   44.29091   51.25483    6.44264
    5542      444        1     0.00000   44.26541   38.10063   19.57607
    5543      444        1     0.00000   31.16063   51.21120   19.53980
    5544      444        1     0.00000   31.17692   38.08275    6.40768
    5545      444        1     0.00000   44.29695   27.61044   19.85946
    5546      444        1     0.00000   44.29248   40.74388    6.72471
    5547      444        1     0.00000   31.13302   27.61912    6.69421
    5548      444        1     0.00000   31.14801   40.76649   19.85446
    5549      444        1     0.00000   34.58226   27.60913    6.46367
    5550      444        1     0.00000   34.54966   40.75913   19.56635
    5551      444        1     0.00000   47.72095   27.60124   19.57897
    5552      444        1     0.00000   47.70886   40.75361    6.44132
    5553      444        1     0.00000   51.25588   32.73317   17.99170
    5554      444        1     0.00000   51.24379   45.87423    4.87088
    5555      444        1     0.00000   38.11246   32.73448    4.86195
    5556      444        1     0.00000   38.11193   45.85530   18.02036
    5557      444        1     0.00000   51.26246   46.14447    8.26754
    5558      444        1     0.00000   51.27008   32.98317   21.43384
    5559      444        1     0.00000   38.10484   46.13973   21.43410
    5560      444        1     0.00000   38.12008   33.00709    8.26308
    5561      444        1     0.00000   27.60124   32.73422    8.28227
    5562      444        1     0.00000   27.61176   45.85898   21.41570
    5563      444        1     0.00000   40.77385   32.75840   21.43673
    5564      444        1     0.00000   40.74546   45.86765    8.27491
    5565      444        1     0.00000   27.59099   46.13080   18.01904
    5566      444        1     0.00000   27.60966   32.98842    4.85748
    5567      444        1     0.00000   40.73941   46.15025    4.86352
    5568      444        1     0.00000   40.74072   32.94189   17.93991
    5569      444        1     0.00000   44.29353   46.14184    1.33043
    5570      444        1     0.00000   44.31877   33.01418   14.45230
    5571      444        1     0.00000   31.13066   46.09820   14.45335
    5572      444        1     0.00000   31.17614   32.94636    1.31650
    5573      444        1     0.00000   34.58541   32.68953    1.29468
    5574      444        1     0.00000   34.57910   45.87107   14.45966
    5575      444        1     0.00000   47.69282   32.70819   14.46807
    5576      444        1     0.00000   47.72095   45.86871    1.33385
    5577      444        1     0.00000   34.56281   46.13395   24.96010
    5578      444        1     0.00000   34.59225   32.98317   11.83613
    5579      444        1     0.00000   47.71674   46.13868   11.84217
    5580      444        1     0.00000   47.73225   33.01787   24.97508
    5581      444        1     0.00000   44.33980   32.73422   24.95931
    5582      444        1     0.00000   44.30458   45.86108   11.81957
    5583      444        1     0.00000   31.14722   32.74079   11.82535
    5584      444        1     0.00000   31.15510   45.85346   24.97166
    5585      444        1     0.00000   27.60151   44.28985   19.85841
    5586      444        1     0.00000   27.59730   31.16588    6.72313
    5587      444        1     0.00000   40.74440   44.30694    6.70999
    5588      444        1     0.00000   40.77464   31.18428   19.88417
    5589      444        1     0.00000   27.61596   34.55834    6.41477
    5590      444        1     0.00000   27.60414   47.70150   19.57607
    5591      444        1     0.00000   40.73626   34.48788   19.52087
    5592      444        1     0.00000   40.73994   47.71306    6.42818
    5593      444        1     0.00000   51.26062   34.53625   19.85998
    5594      444        1     0.00000   51.25036   47.72647    6.72865
    5595      444        1     0.00000   38.11167   34.57674    6.70972
    5596      444        1     0.00000   38.10904   47.69571   19.86261
    5597      444        1     0.00000   51.26430   44.29958    6.43344
    5598      444        1     0.00000   51.25194   31.17061   19.55715
    5599      444        1     0.00000   38.10221   44.29380   19.58475
    5600      444        1     0.00000   38.12666   31.16667    6.42161
    5601      444        1     0.00000   46.15051   27.61044   18.02036
    5602      444        1     0.00000   46.14394   40.75282    4.87273
    5603      444        1     0.00000   33.02628   27.61097    4.89297
    5604      444        1     0.00000   32.99131   40.76544   17.99801
    5605      444        1     0.00000   32.70294   27.61938    8.24757
    5606      444        1     0.00000   32.71792   40.75939   21.41412
    5607      444        1     0.00000   45.88159   27.63253   21.39704
    5608      444        1     0.00000   45.86292   40.75019    8.27333
    5609      444        1     0.00000   46.15051   51.25194    8.27727
    5610      444        1     0.00000   46.14709   38.09380   21.41570
    5611      444        1     0.00000   32.97922   51.23223   21.40072
    5612      444        1     0.00000   32.98317   38.09774    8.29226
    5613      444        1     0.00000   32.71240   51.20278   17.96541
    5614      444        1     0.00000   32.74263   38.09038    4.84617
    5615      444        1     0.00000   45.85346   51.24747    4.87930
    5616      444        1     0.00000   45.83637   38.09774   18.02246
    5617      444        1     0.00000   46.13027   44.29432   24.97692
    5618      444        1     0.00000   46.16786   31.16667   11.82745
    5619      444        1     0.00000   32.99237   44.27513   11.81273
    5620      444        1     0.00000   33.02733   31.07151   24.96352
    5621      444        1     0.00000   32.75972   34.52521   24.92540
    5622      444        1     0.00000   32.72949   47.70281   11.82456
    5623      444        1     0.00000   45.85372   34.54361   11.81983
    5624      444        1     0.00000   45.88106   47.72069   24.97166
    5625      444        1     0.00000   46.15498   34.56070    1.32885
    5626      444        1     0.00000   46.11502   47.66601   14.49646
    5627      444        1     0.00000   32.99237   34.57910   14.48095
    5628      444        1     0.00000   32.99552   47.69361    1.31571
    5629      444        1     0.00000   32.72134   44.28144    1.32254
    5630      444        1     0.00000   32.74079   31.13092   14.47859
    5631      444        1     0.00000   45.84215   44.26803   14.46281
    5632      444        1     0.00000   45.87186   31.15826    1.31308
    5633      444        1     0.00000   44.31509   27.61071    6.42082
    5634      444        1     0.00000   44.28617   40.74651   19.58817
    5635      444        1     0.00000   31.12146   27.54604   19.53690
    5636      444        1     0.00000   31.13302   40.73021    6.43528
    5637      444        1     0.00000   34.54651   27.57206   19.79216
    5638      444        1     0.00000   34.56570   40.74940    6.69474
    5639      444        1     0.00000   47.70071   27.60335    6.73075
    5640      444        1     0.00000   47.69414   40.74046   19.85183
    5641      444        1     0.00000   34.53757   51.26167    6.40032
    5642      444        1     0.00000   34.55728   38.12876   19.58081
    5643      444        1     0.00000   47.72174   51.26062   19.56871
    5644      444        1     0.00000   47.71438   38.11719    6.43291
    5645      444        1     0.00000   44.29485   51.25904   19.86603
    5646      444        1     0.00000   44.30089   38.09879    6.71945
    5647      444        1     0.00000   31.16983   51.25799    6.73759
    5648      444        1     0.00000   31.14669   38.11930   19.85473
    5649      444        1     0.00000   27.61702   46.13816    8.26938
    5650      444        1     0.00000   27.62438   33.00288   21.39309
    5651      444        1     0.00000   40.75255   46.13789   21.44067
    5652      444        1     0.00000   40.75913   33.00157    8.26045
    5653      444        1     0.00000   27.59546   32.66587   18.01063
    5654      444        1     0.00000   27.61465   45.87712    4.87220
    5655      444        1     0.00000   40.76570   32.72975    4.86274
    5656      444        1     0.00000   40.74756   45.85372   18.02193
    5657      444        1     0.00000   51.24064   46.11818   18.02062
    5658      444        1     0.00000   51.25641   33.01681    4.87010
    5659      444        1     0.00000   38.09669   46.15183    4.86826
    5660      444        1     0.00000   38.09090   33.00945   18.06031
    5661      444        1     0.00000   51.24616   32.72213    8.25887
    5662      444        1     0.00000   51.24563   45.87055   21.44173
    5663      444        1     0.00000   38.15794   32.57544   21.38626
    5664      444        1     0.00000   38.10010   45.86424    8.27385
    5665      444        2     0.00000   33.61854   33.55388   -0.03417
    5666      444        2     0.00000   33.60067   46.73542   13.13948
    5667      444        2     0.00000   46.76696   33.61986   13.14395
    5668      444        2     0.00000   46.77353   46.77196    0.01025
    5669      444        2     0.00000   45.26566   45.26514    0.00789
    5670      444        2     0.00000   45.25856   32.10673   13.14080
    5671      444        2     0.00000   32.09753   45.22255   13.13659
    5672      444        2     0.00000   32.09858   32.04101   -0.02813
    5673      444        2     0.00000   45.28564   33.60724   -0.00158
    5674      444        2     0.00000   45.25699   46.71938   13.15893
    5675      444        2     0.00000   32.11461   33.61302   13.15394
    5676      444        2     0.00000   32.12408   46.72622    0.00105
    5677      444        2     0.00000   33.64247   45.21887    0.00499
    5678      444        2     0.00000   33.62617   32.09174   13.16104
    5679      444        2     0.00000   46.77748   45.20099   13.15473
    5680      444        2     0.00000   46.80429   32.09753    0.00394
    5681      444        2     0.00000   26.28659   33.62459    7.32197
    5682      444        2     0.00000   26.28133   46.77038   20.49273
    5683      444        2     0.00000   39.43080   33.53547   20.43096
    5684      444        2     0.00000   39.41976   46.76565    7.32828
    5685      444        2     0.00000   26.27712   45.25225   18.98591
    5686      444        2     0.00000   26.28291   32.11014    5.81541
    5687      444        2     0.00000   39.41976   45.25777    5.81620
    5688      444        2     0.00000   39.43238   32.04206   18.91888
    5689      444        2     0.00000   26.29237   45.27696    7.29253
    5690      444        2     0.00000   26.29579   32.08491   20.46960
    5691      444        2     0.00000   39.42870   45.21571   20.51113
    5692      444        2     0.00000   39.44210   32.13223    7.29463
    5693      444        2     0.00000   26.29736   33.60330   18.95331
    5694      444        2     0.00000   26.28659   46.80009    5.79333
    5695      444        2     0.00000   39.43842   33.65272    5.78492
    5696      444        2     0.00000   39.42922   46.73042   18.98670
    5697      444        2     0.00000   33.61118   26.29184    7.32696
    5698      444        2     0.00000   33.58568   39.44315   20.44410
    5699      444        2     0.00000   46.77485   26.28159   20.48537
    5700      444        2     0.00000   46.74698   39.43316    7.31277
    5701      444        2     0.00000   45.22991   26.28659   18.94201
    5702      444        2     0.00000   45.23333   39.43132    5.79937
    5703      444        2     0.00000   32.09805   26.29316    5.81804
    5704      444        2     0.00000   32.06992   39.44158   18.92650
    5705      444        2     0.00000   33.62932   26.23664   18.88365
    5706      444        2     0.00000   33.61092   39.41976    5.81409
    5707      444        2     0.00000   46.77380   26.28369    5.80437
    5708      444        2     0.00000   46.72306   39.41818   18.97855
    5709      444        2     0.00000   45.26040   26.28843    7.31934
    5710      444        2     0.00000   45.21493   39.40819   20.48932
    5711      444        2     0.00000   32.11435   26.24531   20.40519
    5712      444        2     0.00000   32.09858   39.41266    7.32539
    5713      444        3     0.00000   34.79913   30.84885   23.34681
    5714      444        3     0.00000   34.11433   31.54311   24.47719
    5715      444        3     0.00000   34.75944   44.08980   10.20049
    5716      444        3     0.00000   34.07911   44.75699   11.33771
    5717      444        3     0.00000   44.10558   47.91338   23.36416
    5718      444        3     0.00000   44.79143   47.24172   24.49743
    5719      444        3     0.00000   44.10032   34.74787   10.20575
    5720      444        3     0.00000   44.76882   34.06649   11.34007
    5721      444        3     0.00000   30.97451   34.75628   23.33104
    5722      444        3     0.00000   31.66141   34.06412   24.45563
    5723      444        3     0.00000   44.10216   30.95611    2.92111
    5724      444        3     0.00000   44.78196   31.63407    1.78679
    5725      444        3     0.00000   44.07587   44.07114   16.07453
    5726      444        3     0.00000   44.75462   44.74726   14.93968
    5727      444        3     0.00000   30.94454   30.91352   16.06716
    5728      444        3     0.00000   31.64721   31.60305   14.95019
    5729      444        3     0.00000   34.75944   47.90812    2.92584
    5730      444        3     0.00000   34.08621   47.22542    1.79520
    5731      444        3     0.00000   34.76259   34.77679   16.10292
    5732      444        3     0.00000   34.07884   34.10172   14.96412
    5733      444        3     0.00000   49.66126   34.79151    4.65611
    5734      444        3     0.00000   50.78586   34.10960    5.34065
    5735      444        3     0.00000   36.48182   34.77074   17.85790
    5736      444        3     0.00000   37.61220   34.09067   18.54848
    5737      444        3     0.00000   49.62998   44.10084   21.62968
    5738      444        3     0.00000   50.76982   44.78091   20.96434
    5739      444        3     0.00000   49.63497   30.95716    8.46760
    5740      444        3     0.00000   50.76772   31.63302    7.78542
    5741      444        3     0.00000   36.48839   44.09900    8.47049
    5742      444        3     0.00000   37.62298   44.77671    7.79568
    5743      444        3     0.00000   29.22005   44.09480    4.66295
    5744      444        3     0.00000   28.08626   44.78249    5.34012
    5745      444        3     0.00000   42.35769   44.08612   17.81741
    5746      444        3     0.00000   41.22626   44.76619   18.49696
    5747      444        3     0.00000   42.38424   30.96846    4.66452
    5748      444        3     0.00000   41.24440   31.64301    5.33934
    5749      444        3     0.00000   29.23241   34.76969   21.60603
    5750      444        3     0.00000   28.10203   34.09094   20.91886
    5751      444        3     0.00000   42.38083   34.75392    8.46786
    5752      444        3     0.00000   41.24098   34.09146    7.79200
    5753      444        3     0.00000   30.96294   49.63681    8.48968
    5754      444        3     0.00000   31.64275   50.77744    7.82459
    5755      444        3     0.00000   30.95742   36.50496   21.61785
    5756      444        3     0.00000   31.62750   37.64401   20.94173
    5757      444        3     0.00000   47.89287   49.61131   17.83424
    5758      444        3     0.00000   47.23331   50.76614   18.49643
    5759      444        3     0.00000   47.92100   36.50811    4.66584
    5760      444        3     0.00000   47.24146   37.63744    5.34643
    5761      444        3     0.00000   34.74656   49.64181    4.64928
    5762      444        3     0.00000   34.06176   50.77981    5.31646
    5763      444        3     0.00000   30.89459   29.13830   17.75196
    5764      444        3     0.00000   31.58281   28.01396   18.43938
    5765      444        3     0.00000   30.93323   42.34376    4.66058
    5766      444        3     0.00000   31.60726   41.20786    5.34486
    5767      444        3     0.00000   47.90444   29.22426    8.48600
    5768      444        3     0.00000   47.22306   28.08626    7.81513
    5769      444        3     0.00000   47.89734   42.36847   21.61470
    5770      444        3     0.00000   47.22017   41.22810   20.93700
    5771      444        3     0.00000   34.76128   42.36400    8.46444
    5772      444        3     0.00000   34.09015   41.22547    7.78464
    5773      444        3     0.00000   30.97398   34.72500    2.92111
    5774      444        3     0.00000   31.64537   34.04362    1.77943
    5775      444        3     0.00000   30.92955   47.86921   16.06138
    5776      444        3     0.00000   31.60331   47.18809   14.92969
    5777      444        3     0.00000   47.91417   44.09506    2.94477
    5778      444        3     0.00000   47.24488   44.77749    1.80782
    5779      444        3     0.00000   47.88367   30.96636   16.09818
    5780      444        3     0.00000   47.21254   31.62566   14.95151
    5781      444        3     0.00000   34.78021   30.94349    2.93610
    5782      444        3     0.00000   34.10671   31.60883    1.78784
    5783      444        3     0.00000   30.95216   44.09822   23.35102
    5784      444        3     0.00000   31.62881   44.76777   24.48981
    5785      444        3     0.00000   30.95242   30.97293   10.20233
    5786      444        3     0.00000   31.62040   31.65063   11.34638
    5787      444        3     0.00000   47.91864   34.76443   23.34918
    5788      444        3     0.00000   47.25145   34.10198   24.49559
    5789      444        3     0.00000   47.91390   47.90707   10.23178
    5790      444        3     0.00000   47.23909   47.22989   11.37162
    5791      444        3     0.00000   34.77784   34.75366   10.21495
    5792      444        3     0.00000   34.11433   34.07148   11.35690
    5793      444        3     0.00000   34.75129   49.62577   21.61628
    5794      444        3     0.00000   34.06912   50.75142   20.93227
    5795      444        3     0.00000   34.75918   36.48945    8.48679
    5796      444        3     0.00000   34.07385   37.62456    7.81671
    5797      444        3     0.00000   44.08954   49.63786    4.67478
    5798      444        3     0.00000   44.76382   50.77429    5.35379
    5799      444        3     0.00000   44.07350   36.48235   17.80611
    5800      444        3     0.00000   44.74463   37.62088   18.49038
    5801      444        3     0.00000   30.98108   36.46342    4.64849
    5802      444        3     0.00000   31.65694   37.60484    5.32146
    5803      444        3     0.00000   44.13318   29.26106   21.59709
    5804      444        3     0.00000   44.79011   28.10650   20.93043
    5805      444        3     0.00000   44.09637   42.36716    8.47548
    5806      444        3     0.00000   44.77355   41.22837    7.80383
    5807      444        3     0.00000   30.95137   29.24213    8.46234
    5808      444        3     0.00000   31.61698   28.10203    7.77701
    5809      444        3     0.00000   34.78573   29.22137    4.68661
    5810      444        3     0.00000   34.11065   28.08836    5.37351
    5811      444        3     0.00000   34.76627   42.36795   17.80085
    5812      444        3     0.00000   34.08121   41.23678   18.47592
    5813      444        3     0.00000   49.62866   30.97293   17.81110
    5814      444        3     0.00000   50.77271   31.64827   18.47198
    5815      444        3     0.00000   36.50706   30.95926    4.67057
    5816      444        3     0.00000   37.64243   31.64222    5.33802
    5817      444        3     0.00000   49.64470   47.90470    8.49678
    5818      444        3     0.00000   50.77771   47.23673    7.81145
    5819      444        3     0.00000   36.48629   47.89918   21.62075
    5820      444        3     0.00000   37.62771   47.22490   20.95146
    5821      444        3     0.00000   36.49891   34.76627    8.47548
    5822      444        3     0.00000   37.63718   34.09541    7.79515
    5823      444        3     0.00000   29.21769   30.97004    8.47837
    5824      444        3     0.00000   28.07758   31.64432    7.80829
    5825      444        3     0.00000   42.41763   31.01000   21.60655
    5826      444        3     0.00000   41.26228   31.67508   20.95961
    5827      444        3     0.00000   29.20638   47.88472   17.79822
    5828      444        3     0.00000   28.07364   47.21859   18.48618
    5829      444        3     0.00000   29.23714   34.74288    4.65112
    5830      444        3     0.00000   28.09388   34.07595    5.32908
    5831      444        3     0.00000   42.35428   47.91154    4.66742
    5832      444        3     0.00000   41.21732   47.23778    5.34012
    5833      444        3     0.00000   44.08717   47.90602    2.94556
    5834      444        3     0.00000   44.76409   47.22910    1.81202
    5835      444        3     0.00000   44.10163   34.76443   16.06532
    5836      444        3     0.00000   44.79064   34.10093   14.93310
    5837      444        3     0.00000   34.78021   44.10084   16.07137
    5838      444        3     0.00000   34.10750   44.78065   14.93705
    5839      444        3     0.00000   34.75392   47.90023   23.35023
    5840      444        3     0.00000   34.08305   47.22385   24.48849
    5841      444        3     0.00000   44.17682   31.01946   23.29818
    5842      444        3     0.00000   44.83454   31.66719   24.45642
    5843      444        3     0.00000   44.09900   44.10663   10.19392
    5844      444        3     0.00000   44.77355   44.77513   11.33245
    5845      444        3     0.00000   29.22478   44.09900   21.61628
    5846      444        3     0.00000   28.08599   44.76961   20.94147
    5847      444        3     0.00000   42.36584   44.10400    8.46970
    5848      444        3     0.00000   41.22521   44.78065    7.79725
    5849      444        3     0.00000   42.35480   34.73026   17.77667
    5850      444        3     0.00000   41.21522   34.03048   18.42861
    5851      444        3     0.00000   49.64522   34.74708   21.61628
    5852      444        3     0.00000   50.78559   34.06649   20.95040
    5853      444        3     0.00000   49.63865   44.09900    4.67951
    5854      444        3     0.00000   50.77666   44.77802    5.34959
    5855      444        3     0.00000   36.50233   44.09217   17.80821
    5856      444        3     0.00000   37.63218   44.76829   18.49301
    5857      444        3     0.00000   47.90234   29.23530   17.82767
    5858      444        3     0.00000   47.23883   28.08678   18.49669
    5859      444        3     0.00000   47.91338   42.36006    4.67136
    5860      444        3     0.00000   47.23357   41.22837    5.35116
    5861      444        3     0.00000   30.95584   42.37136   21.61969
    5862      444        3     0.00000   31.62934   41.23941   20.94278
    5863      444        3     0.00000   47.91180   49.63340    8.49125
    5864      444        3     0.00000   47.23725   50.76851    7.80567
    5865      444        3     0.00000   47.91180   36.47840   21.60340
    5866      444        3     0.00000   47.23331   37.61562   20.92990
    5867      444        3     0.00000   30.94349   49.60211   17.78482
    5868      444        3     0.00000   31.62697   50.73065   18.45200
    5869      444        3     0.00000   47.89839   44.09269   23.36101
    5870      444        3     0.00000   47.22017   44.76672   24.50032
    5871      444        3     0.00000   47.92021   30.96084   10.21127
    5872      444        3     0.00000   47.25355   31.64275   11.34822
    5873      444        3     0.00000   30.96557   47.90129   10.20996
    5874      444        3     0.00000   31.64222   47.22700   11.34402
    5875      444        3     0.00000   47.93152   34.78862    2.92532
    5876      444        3     0.00000   47.25355   34.10066    1.79783
    5877      444        3     0.00000   47.84924   47.83925   16.14208
    5878      444        3     0.00000   47.18836   47.17811   14.98857
    5879      444        3     0.00000   30.95558   44.08481    2.93794
    5880      444        3     0.00000   31.63538   44.76172    1.80256
    5881      444        3     0.00000   44.11004   29.22820    4.65716
    5882      444        3     0.00000   44.78906   28.08915    5.33224
    5883      444        3     0.00000   44.08271   42.34954   17.81400
    5884      444        3     0.00000   44.76014   41.21706   18.49301
    5885      444        3     0.00000   34.75655   29.15722   21.57685
    5886      444        3     0.00000   34.07254   28.04235   20.88469
    5887      444        3     0.00000   34.76470   36.51153   17.82767
    5888      444        3     0.00000   34.08594   37.64848   18.49354
    5889      444        3     0.00000   44.10032   49.63681   21.62548
    5890      444        3     0.00000   44.77460   50.77666   20.95040
    5891      444        3     0.00000   44.11925   36.47709    8.47548
    5892      444        3     0.00000   44.78670   37.62219    7.80619
    5893      444        3     0.00000   29.22978   47.90707    8.48416
    5894      444        3     0.00000   28.09230   47.23331    7.80304
    5895      444        3     0.00000   42.37347   47.90050   21.62863
    5896      444        3     0.00000   41.23126   47.22227   20.95829
    5897      444        3     0.00000   29.18115   30.88434   17.77246
    5898      444        3     0.00000   28.06812   31.57335   18.47882
    5899      444        3     0.00000   49.61841   47.87631   17.82872
    5900      444        3     0.00000   50.76562   47.20965   18.49091
    5901      444        3     0.00000   36.48261   47.91443    4.66400
    5902      444        3     0.00000   37.61720   47.23936    5.34380
    5903      444        3     0.00000   36.54334   30.82072   21.61312
    5904      444        3     0.00000   37.67082   31.49527   20.90913
    5905      444        3     0.00000   35.99944   31.35384   22.80370
    5906      444        4     0.00000   36.48419   32.18953   23.28898
    5907      444        3     0.00000   35.91085   44.65631    9.62531
    5908      444        4     0.00000   36.33277   45.56087   10.04881
    5909      444        3     0.00000   42.95679   47.34346   22.78320
    5910      444        4     0.00000   42.54092   46.43626   23.20275
    5911      444        3     0.00000   42.94786   34.19293    9.62137
    5912      444        4     0.00000   42.52199   33.28995   10.04382
    5913      444        3     0.00000   29.81416   47.33662    9.62926
    5914      444        4     0.00000   29.39434   46.42706   10.04461
    5915      444        3     0.00000   42.95627   31.52524    3.50602
    5916      444        4     0.00000   42.53645   32.43138    3.08410
    5917      444        3     0.00000   42.92998   44.64159   16.65943
    5918      444        4     0.00000   42.51095   45.54773   16.23909
    5919      444        3     0.00000   29.80943   44.65552    3.51890
    5920      444        4     0.00000   29.39934   45.56666    3.10434
    5921      444        3     0.00000   35.90953   47.34977    3.51049
    5922      444        4     0.00000   36.33303   46.44546    3.09356
    5923      444        3     0.00000   35.91085   34.21107   16.69492
    5924      444        4     0.00000   36.33566   33.30808   16.27247
    5925      444        3     0.00000   49.07478   35.93372    5.22630
    5926      444        4     0.00000   49.48855   36.34802    6.13901
    5927      444        3     0.00000   49.06084   49.04665   18.37656
    5928      444        4     0.00000   49.51247   49.49381   19.25431
    5929      444        3     0.00000   35.90454   35.92583   18.40863
    5930      444        4     0.00000   36.31305   36.33960   19.32240
    5931      444        3     0.00000   49.04849   42.95390   21.05529
    5932      444        4     0.00000   49.47094   42.54223   20.14652
    5933      444        3     0.00000   49.05348   29.80180    7.91397
    5934      444        4     0.00000   49.46936   29.37804    7.00809
    5935      444        3     0.00000   35.92005   29.71295   21.02217
    5936      444        4     0.00000   36.31489   29.31048   20.09841
    5937      444        3     0.00000   29.78235   42.92919    5.21894
    5938      444        4     0.00000   29.35386   42.49912    6.11641
    5939      444        3     0.00000   29.72715   29.70007   18.29717
    5940      444        4     0.00000   29.28262   29.25107   19.17439
    5941      444        3     0.00000   29.80706   35.92636   21.05214
    5942      444        4     0.00000   29.38567   36.34907   20.14784
    5943      444        3     0.00000   29.81179   49.05848    7.92291
    5944      444        4     0.00000   29.39355   49.47882    7.01677
    5945      444        3     0.00000   31.52576   49.05401    9.63688
    5946      444        4     0.00000   32.42823   49.47593   10.06038
    5947      444        3     0.00000   44.66288   49.06479   22.78136
    5948      444        4     0.00000   45.56639   49.49013   23.20117
    5949      444        3     0.00000   44.67129   35.89928    9.63110
    5950      444        4     0.00000   45.57191   36.32304   10.05670
    5951      444        3     0.00000   47.29666   48.99933   16.71648
    5952      444        4     0.00000   46.38973   49.41836   16.30165
    5953      444        3     0.00000   47.36028   35.93188    3.51154
    5954      444        4     0.00000   46.45177   36.34959    3.09514
    5955      444        3     0.00000   34.19372   49.06084    3.49655
    5956      444        4     0.00000   33.29021   49.48145    3.07174
    5957      444        3     0.00000   31.48370   29.74318   16.62736
    5958      444        4     0.00000   32.39879   29.33519   16.21622
    5959      444        3     0.00000   44.66288   29.80101    3.49761
    5960      444        4     0.00000   45.56219   29.37436    3.07016
    5961      444        3     0.00000   47.35134   29.80706    9.63977
    5962      444        4     0.00000   46.44704   29.38882   10.06564
    5963      444        3     0.00000   34.19819   29.73556   22.73167
    5964      444        4     0.00000   33.26734   29.34834   23.12625
    5965      444        3     0.00000   31.54285   35.87510    3.50023
    5966      444        4     0.00000   32.44847   36.29229    3.07831
    5967      444        3     0.00000   44.64658   35.91795   16.65260
    5968      444        4     0.00000   45.54747   36.35117   16.23672
    5969      444        3     0.00000   47.35345   42.93734    3.51706
    5970      444        4     0.00000   46.45072   42.51463    3.09041
    5971      444        3     0.00000   34.21107   42.94996   16.64734
    5972      444        4     0.00000   33.30545   42.53382   16.22279
    5973      444        3     0.00000   34.22579   29.78997    3.52284
    5974      444        4     0.00000   33.32859   29.35938    3.09724
    5975      444        3     0.00000   31.51499   42.94681   22.77321
    5976      444        4     0.00000   32.41955   42.52383   23.19513
    5977      444        3     0.00000   31.51867   29.82257    9.61480
    5978      444        4     0.00000   32.42744   29.40564   10.02962
    5979      444        3     0.00000   44.65946   42.95049    9.62163
    5980      444        4     0.00000   45.56350   42.52988   10.04513
    5981      444        3     0.00000   47.34977   35.90454   22.75717
    5982      444        4     0.00000   46.43810   36.31884   23.16831
    5983      444        3     0.00000   34.20450   35.90270    9.63793
    5984      444        4     0.00000   33.29757   36.31857   10.05880
    5985      444        3     0.00000   35.90507   49.04796   21.05477
    5986      444        4     0.00000   36.32620   49.46594   20.14915
    5987      444        3     0.00000   35.91427   35.91900    7.91897
    5988      444        4     0.00000   36.32961   36.34565    7.01230
    5989      444        3     0.00000   42.93603   49.06058    5.23340
    5990      444        4     0.00000   42.51595   49.47856    6.13928
    5991      444        3     0.00000   42.92288   35.88404   18.35763
    5992      444        4     0.00000   42.49492   36.29334   19.26535
    5993      444        3     0.00000   29.82178   35.89455    5.20895
    5994      444        4     0.00000   29.39907   36.32278    6.11010
    5995      444        3     0.00000   42.97230   29.83887   21.05240
    5996      444        4     0.00000   42.52331   29.40091   20.16939
    5997      444        3     0.00000   42.94602   42.94970    7.90924
    5998      444        4     0.00000   42.52699   42.53119    7.00283
    5999      444        3     0.00000   29.79812   29.82205    7.90898
    6000      444        4     0.00000   29.37252   29.40196    7.00651
    6001      444        3     0.00000   35.93661   29.80680    5.23892
    6002      444        4     0.00000   36.36169   29.38698    6.14217
    6003      444        3     0.00000   35.91979   42.93971   18.36499
    6004      444        4     0.00000   36.33934   42.51227   19.26745
    6005      444        3     0.00000   49.04008   31.53181   16.66443
    6006      444        4     0.00000   49.46042   32.43349   16.23514
    6007      444        3     0.00000   49.06295   44.65815    3.52626
    6008      444        4     0.00000   49.48408   45.56219    3.10434
    6009      444        3     0.00000   35.92347   31.51761    3.51758
    6010      444        4     0.00000   36.33803   32.42481    3.09777
    6011      444        3     0.00000   49.06768   47.34425    9.65160
    6012      444        4     0.00000   49.49328   46.44099   10.07142
    6013      444        3     0.00000   49.06742   34.19451   22.77189
    6014      444        4     0.00000   49.48671   33.29047   23.19618
    6015      444        3     0.00000   35.92662   34.19635    9.62689
    6016      444        4     0.00000   36.35301   33.29152   10.04198
    6017      444        3     0.00000   29.79812   31.53207    9.62873
    6018      444        4     0.00000   29.37778   32.43743   10.05065
    6019      444        3     0.00000   29.80312   44.66314   22.76769
    6020      444        4     0.00000   29.38435   45.56929   23.18724
    6021      444        3     0.00000   29.77893   47.31323   16.64629
    6022      444        4     0.00000   29.35622   46.40682   16.23146
    6023      444        3     0.00000   29.81784   34.17112    3.50339
    6024      444        4     0.00000   29.39198   33.26681    3.08673
    6025      444        3     0.00000   42.93340   47.34609    3.51916
    6026      444        4     0.00000   42.51411   46.44231    3.09409
    6027      444        3     0.00000   42.95259   34.18347   16.63051
    6028      444        4     0.00000   42.54723   33.27417   16.20491
    6029      444        3     0.00000   35.93056   44.65867   16.65496
    6030      444        4     0.00000   36.35222   45.56561   16.23909
    6031      444        3     0.00000   35.90244   47.33583   22.76926
    6032      444        4     0.00000   36.32252   46.43100   23.19040
    6033      444        3     0.00000   43.03119   31.59438   22.72352
    6034      444        4     0.00000   42.62636   32.51156   23.13414
    6035      444        3     0.00000   42.94681   44.66840    9.61927
    6036      444        4     0.00000   42.52488   45.57165   10.04434
    6037      444        3     0.00000   29.80654   42.95049   21.05424
    6038      444        4     0.00000   29.38882   42.53093   20.14705
    6039      444        3     0.00000   29.79287   49.03351   18.35395
    6040      444        4     0.00000   29.37962   49.45753   19.26114
    6041      444        3     0.00000   49.06374   35.89508   21.04320
    6042      444        4     0.00000   49.48303   36.31069   20.13495
    6043      444        3     0.00000   49.06295   49.05322    7.93080
    6044      444        4     0.00000   49.47567   49.46752    7.01834
    6045      444        3     0.00000   49.06163   42.94391    5.23734
    6046      444        4     0.00000   49.48171   42.52436    6.14085
    6047      444        3     0.00000   49.05664   29.81915   18.38103
    6048      444        4     0.00000   49.48697   29.39828   19.28165
    6049      444        3     0.00000   47.32295   29.82047   16.68782
    6050      444        4     0.00000   46.41497   29.39934   16.27431
    6051      444        3     0.00000   44.72150   29.85648   22.72694
    6052      444        4     0.00000   45.62738   29.43377   23.14308
    6053      444        3     0.00000   47.35055   49.05716    9.64687
    6054      444        4     0.00000   46.44678   49.47909   10.06800
    6055      444        3     0.00000   34.19162   49.05270   22.77137
    6056      444        4     0.00000   33.28837   49.47567   23.19487
    6057      444        3     0.00000   31.49895   49.01905   16.63367
    6058      444        4     0.00000   32.40431   49.43597   16.21070
    6059      444        3     0.00000   44.65420   49.05585    3.52521
    6060      444        4     0.00000   45.56061   49.47725    3.10329
    6061      444        3     0.00000   47.33715   42.94234   22.77347
    6062      444        4     0.00000   46.43021   42.51726   23.18803
    6063      444        3     0.00000   34.19767   42.93997    9.61717
    6064      444        4     0.00000   33.29231   42.52068   10.03803
    6065      444        3     0.00000   31.52839   35.91742   22.76164
    6066      444        4     0.00000   32.43243   36.33987   23.18225
    6067      444        3     0.00000   34.20766   35.93477   16.67257
    6068      444        4     0.00000   33.31150   36.36326   16.23909
    6069      444        3     0.00000   31.50684   42.92446    3.51285
    6070      444        4     0.00000   32.41219   42.50201    3.09330
    6071      444        3     0.00000   44.63554   42.91789   16.65260
    6072      444        4     0.00000   45.53275   42.48913   16.22410
    6073      444        3     0.00000   42.96521   29.81652    5.22682
    6074      444        4     0.00000   42.54828   29.40170    6.13533
    6075      444        3     0.00000   42.93708   42.93471   18.38050
    6076      444        4     0.00000   42.51963   42.51752   19.28848
    6077      444        3     0.00000   35.91006   42.94838    7.90425
    6078      444        4     0.00000   36.33119   42.53040    6.99915
    6079      444        3     0.00000   35.89665   49.06453    5.22262
    6080      444        4     0.00000   36.30753   49.48198    6.13297
    6081      444        3     0.00000   42.95154   49.05086   21.06108
    6082      444        4     0.00000   42.53040   49.46699   20.15283
    6083      444        3     0.00000   42.97598   35.89455    7.89846
    6084      444        4     0.00000   42.56589   36.30780    6.98575
    6085      444        3     0.00000   29.81337   34.20398   22.75770
    6086      444        4     0.00000   29.38698   33.30335   23.18172
    6087      444        3     0.00000   29.78813   31.47477   16.64445
    6088      444        4     0.00000   29.38961   32.40325   16.24908
    6089      444        3     0.00000   49.01090   47.28773   16.70675
    6090      444        4     0.00000   49.42309   46.37632   16.29324
    6091      444        3     0.00000   49.09318   34.23868    3.49498
    6092      444        4     0.00000   49.52220   33.34226    3.06596
    6093      444        3     0.00000   49.06584   31.52156    9.62242
    6094      444        4     0.00000   49.48934   32.42639   10.03961
    6095      444        3     0.00000   49.05138   44.65552   22.78504
    6096      444        4     0.00000   49.46857   45.55825   23.21064
    6097      577        5     0.00000   36.11274   39.78805   12.15395
    6098      577        6     0.00000   35.53467   40.51885   11.81851
    6099      577        6     0.00000   36.12115   39.90871   13.13685
    6100      578        5     0.00000   41.70680   29.10439   10.05749
    6101      578        6     0.00000   41.64003   28.93167   11.03014
    6102      578        6     0.00000   42.46390   29.73687    9.96863
    6103      579        5     0.00000   50.30558   49.72409   24.24848
    6104      579        6     0.00000   50.88654   48.92757   24.33839
    6105      579        6     0.00000   49.40863   49.35474   24.04949
    6106      580        5     0.00000   38.21656   51.19621    1.63590
    6107      580        6     0.00000   38.36062   51.09500    0.66140
    6108      580        6     0.00000   38.70814   50.43754    2.04047
    6109      581        5     0.00000   48.56190   36.02704   16.64576
    6110      581        6     0.00000   48.10843   36.72262   17.18493
    6111      581        6     0.00000   48.65417   35.25707   17.26116
    6112      582        5     0.00000   26.97165   47.49750   12.23859
    6113      582        6     0.00000   27.75608   47.72358   11.67866
    6114      582        6     0.00000   26.76503   46.55745   12.00700
    6115      583        5     0.00000   39.47444   28.66748   16.32189
    6116      583        6     0.00000   39.66581   27.97374   15.64183
    6117      583        6     0.00000   39.92922   29.47951   15.98357
    6118      584        5     0.00000   31.41036   27.18563   23.82551
    6119      584        6     0.00000   32.14090   27.42590   24.44932
    6120      584        6     0.00000   31.15905   28.04078   23.39387
    6121      585        5     0.00000   28.90328   42.51831    0.28365
    6122      585        6     0.00000   29.83387   42.85191    0.22818
    6123      585        6     0.00000   28.35045   43.33639    0.36120
    6124      586        5     0.00000   40.91606   38.14558    8.65766
    6125      586        6     0.00000   41.66632   38.11956    9.30355
    6126      586        6     0.00000   40.10219   38.14006    9.22074
    6127      587        5     0.00000   48.76116   42.47757   15.67285
    6128      587        6     0.00000   47.98620   42.95364   16.06217
    6129      587        6     0.00000   48.53325   42.38004   14.71413
    6130      588        5     0.00000   37.31857   52.10866    7.37533
    6131      588        6     0.00000   37.95736   52.84657    7.20946
    6132      588        6     0.00000   37.74154   51.31714    6.95736
    6133      589        5     0.00000   40.18947   41.96758   23.90569
    6134      589        6     0.00000   39.66502   42.06853   23.07184
    6135      589        6     0.00000   40.17580   42.86820   24.31657
    6136      590        5     0.00000   50.56662   40.83589   25.33838
    6137      590        6     0.00000   49.99985   41.64634   25.39043
    6138      590        6     0.00000   50.66204   40.66107   24.36836
    6139      591        5     0.00000   26.58627   52.61549   10.98492
    6140      591        6     0.00000   25.67723   52.45908   10.62504
    6141      591        6     0.00000   27.07470   51.77507   10.79723
    6142      592        5     0.00000   27.60045   51.94358   15.75933
    6143      592        6     0.00000   28.07574   51.15415   16.12184
    6144      592        6     0.00000   27.82942   51.95199   14.79614
    6145      593        5     0.00000   52.47039   27.12885   19.56056
    6146      593        6     0.00000   52.27375   28.01922   19.17413
    6147      593        6     0.00000   52.84446   27.32364   20.45672
    6148      594        5     0.00000   51.32318   44.30852   12.35926
    6149      594        6     0.00000   50.51167   43.97361   12.81667
    6150      594        6     0.00000   50.98564   44.72466   11.52646
    6151      595        5     0.00000   40.72548   42.38740    4.35485
    6152      595        6     0.00000   41.40160   42.93498    3.88193
    6153      595        6     0.00000   40.88951   41.46285    4.04098
    6154      596        5     0.00000   49.46857   28.06470   14.62790
    6155      596        6     0.00000   49.43650   27.84125   15.59162
    6156      596        6     0.00000   48.80769   28.79103   14.51250
    6157      597        5     0.00000   39.37559   34.08568   25.97271
    6158      597        6     0.00000   38.64479   33.82622   25.35731
    6159      597        6     0.00000   39.16923   35.02127   26.22297
    6160      598        5     0.00000   36.21868   29.88619    9.16449
    6161      598        6     0.00000   35.30780   30.06021    9.51149
    6162      598        6     0.00000   36.73235   30.70059    9.39556
    6163      599        5     0.00000   34.20871   27.49635   13.93916
    6164      599        6     0.00000   34.60066   28.39619   14.07060
    6165      599        6     0.00000   34.94345   26.87123   14.16208
    6166      600        5     0.00000   50.93070   38.59327    2.86486
    6167      600        6     0.00000   51.16388   38.52623    3.82463
    6168      600        6     0.00000   49.97225   38.84274    2.85907
    6169      601        5     0.00000   45.43338   52.58500   12.01541
    6170      601        6     0.00000   45.66313   51.65993   11.74622
    6171      601        6     0.00000   44.47624   52.54031   12.26593
    6172      602        5     0.00000   26.87281   34.22606   11.97282
    6173      602        6     0.00000   26.66513   34.09909   11.01305
    6174      602        6     0.00000   27.84782   34.39798   11.99569
    6175      603        5     0.00000   34.93057   50.16467   13.13159
    6176      603        6     0.00000   35.07410   50.33502   14.09636
    6177      603        6     0.00000   34.50918   50.99432   12.79274
    6178      604        5     0.00000   43.18103   39.41581    4.15612
    6179      604        6     0.00000   42.63004   39.32512    3.34172
    6180      604        6     0.00000   43.55195   40.33116    4.09513
    6181      605        5     0.00000   42.28540   50.31504    0.15930
    6182      605        6     0.00000   43.20022   49.98986    0.35541
    6183      605        6     0.00000   41.77358   50.13103    0.98711
    6184      606        5     0.00000   30.44323   43.46783    8.93053
    6185      606        6     0.00000   29.77289   42.79355    9.20655
    6186      606        6     0.00000   30.88960   43.06405    8.14478
    6187      607        5     0.00000   40.21392   51.28559   14.49278
    6188      607        6     0.00000   39.23180   51.37181   14.58505
    6189      607        6     0.00000   40.54146   51.17124   15.41996
    6190      608        5     0.00000   37.65584   43.08403   13.42628
    6191      608        6     0.00000   38.48496   42.56537   13.27013
    6192      608        6     0.00000   37.23129   42.64581   14.20624
    6193      609        5     0.00000   27.92169   39.91318   20.38574
    6194      609        6     0.00000   27.34730   39.18948   20.74220
    6195      609        6     0.00000   27.51081   40.15135   19.51666
    6196      610        5     0.00000   34.40324   34.68636    4.48288
    6197      610        6     0.00000   35.20765   35.13483    4.11905
    6198      610        6     0.00000   34.69898   34.30755    5.34854
    6199      611        5     0.00000   30.77577   40.61743   13.48937
    6200      611        6     0.00000   30.67877   39.67344   13.77171
    6201      611        6     0.00000   31.75315   40.75098   13.40210
    6202      612        5     0.00000   38.85062   36.16479   15.02906
    6203      612        6     0.00000   39.26098   36.98708   14.66102
    6204      612        6     0.00000   38.84011   35.53125   14.26802
    6205      613        5     0.00000   39.77990   44.63685    1.11198
    6206      613        6     0.00000   40.52096   45.29037    1.04731
    6207      613        6     0.00000   39.64373   44.51225    2.08463
    6208      614        5     0.00000   36.29965   42.59192    3.19924
    6209      614        6     0.00000   37.18161   42.88950    2.86091
    6210      614        6     0.00000   35.64219   43.09717    2.65771
    6211      615        5     0.00000   30.57861   29.91668    3.45449
    6212      615        6     0.00000   30.83571   29.11069    2.93951
    6213      615        6     0.00000   29.58992   29.88592    3.48630
    6214      616        5     0.00000   51.61498   50.96751    5.70526
    6215      616        6     0.00000   51.51456   51.86024    6.12193
    6216      616        6     0.00000   52.44962   50.60368    6.09459
    6217      617        5     0.00000   39.00546   37.47419    5.24391
    6218      617        6     0.00000   38.94868   36.78072    4.53939
    6219      617        6     0.00000   39.17896   38.31593    4.75206
    6220      618        5     0.00000   52.30425   37.73602   23.64597
    6221      618        6     0.00000   52.92149   38.45236   23.94065
    6222      618        6     0.00000   52.77769   36.89454   23.86573
    6223      619        5     0.00000   40.87716   38.50494   12.24911
    6224      619        6     0.00000   40.53778   37.80253   11.63976
    6225      619        6     0.00000   40.90108   38.06856   13.13712
    6226      620        5     0.00000   50.37550   39.11745   10.16895
    6227      620        6     0.00000   51.30977   38.95052   10.45181
    6228      620        6     0.00000   49.82372   38.66161   10.85296
    6229      621        5     0.00000   37.86509   48.53430   24.94722
    6230      621        6     0.00000   37.20290   49.23960   25.15805
    6231      621        6     0.00000   37.71446   47.83898   25.63570
    6232      622        5     0.00000   27.78631   28.65302   24.72824
    6233      622        6     0.00000   26.95850   29.07337   25.07314
    6234      622        6     0.00000   28.50344   29.29970   24.94748
    6235      623        5     0.00000   28.34467   43.41210   12.28907
    6236      623        6     0.00000   27.69010   42.68813   12.12319
    6237      623        6     0.00000   28.88541   43.45232   11.46074
    6238      624        5     0.00000   50.20463   35.47210   13.86082
    6239      624        6     0.00000   50.51535   36.21474   13.28380
    6240      624        6     0.00000   49.32504   35.21580   13.48517
    6241      625        5     0.00000   52.45672   32.96371    0.68480
    6242      625        6     0.00000   51.99589   33.63432    1.24973
    6243      625        6     0.00000   52.63048   33.43479   -0.16877
    6244      626        5     0.00000   43.17525   38.19763    0.55047
    6245      626        6     0.00000   42.94496   37.34406    0.10436
    6246      626        6     0.00000   42.36821   38.76046    0.44032
    6247      627        5     0.00000   27.24767   28.14961    4.77204
    6248      627        6     0.00000   28.17695   28.31995    5.06726
    6249      627        6     0.00000   26.69037   28.70928    5.36930
    6250      628        5     0.00000   39.72181   27.77422   26.22402
    6251      628        6     0.00000   40.09325   28.62411   25.88044
    6252      628        6     0.00000   39.88374   27.12254   25.49663
    6253      629        5     0.00000   52.00956   41.83246   10.21995
    6254      629        6     0.00000   51.16283   42.02410   10.69628
    6255      629        6     0.00000   52.41518   42.72204   10.06406
    6256      630        5     0.00000   40.91370   49.58003   17.59817
    6257      630        6     0.00000   40.13821   49.72172   18.19727
    6258      630        6     0.00000   40.72627   48.71989   17.14497
    6259      631        5     0.00000   30.68771   36.95711   13.12581
    6260      631        6     0.00000   29.86200   36.63350   12.68523
    6261      631        6     0.00000   31.31625   37.12956   12.38029
    6262      632        5     0.00000   42.85375   28.29998   15.95938
    6263      632        6     0.00000   42.79933   27.31655   16.06243
    6264      632        6     0.00000   43.61767   28.56811   16.52957
    6265      633        5     0.00000   27.12491   47.59293    1.83411
    6266      633        6     0.00000   26.63096   48.02852    1.09463
    6267      633        6     0.00000   26.45220   47.01880    2.27969
    6268      634        5     0.00000   50.58817   46.36791    0.46845
    6269      634        6     0.00000   51.44752   46.03038    0.11120
    6270      634        6     0.00000   50.41861   47.20229   -0.03680
    6271      635        5     0.00000   48.02142   51.02455    1.66665
    6272      635        6     0.00000   47.92468   51.90888    1.23159
    6273      635        6     0.00000   47.39077   50.43728    1.17875
    6274      636        5     0.00000   41.31065   48.32584   13.64053
    6275      636        6     0.00000   41.42605   47.50066   13.10583
    6276      636        6     0.00000   40.87637   48.02274   14.47701
    6277      637        5     0.00000   38.78885   40.18263   17.73960
    6278      637        6     0.00000   39.77175   40.06118   17.76011
    6279      637        6     0.00000   38.59905   40.79987   18.49038
    6280      638        5     0.00000   30.38986   37.96367    1.50288
    6281      638        6     0.00000   30.61173   38.13112    0.55283
    6282      638        6     0.00000   29.42431   37.74364    1.49946
    6283      639        5     0.00000   47.53851   40.33247    0.37276
    6284      639        6     0.00000   46.62264   40.57459    0.08438
    6285      639        6     0.00000   47.54771   39.34221    0.37040
    6286      640        5     0.00000   41.54934   42.68393   12.14159
    6287      640        6     0.00000   42.01805   43.50490   12.43602
    6288      640        6     0.00000   40.88505   43.00096   11.47914
    6289      641        5     0.00000   44.86582   28.18194   26.21140
    6290      641        6     0.00000   44.43181   28.38567   25.34522
    6291      641        6     0.00000   44.15894   27.73873   26.74452
    6292      642        5     0.00000   29.57362   50.50589   22.71669
    6293      642        6     0.00000   29.05260   49.82556   23.21327
    6294      642        6     0.00000   30.49528   50.41835   23.06790
    6295      643        5     0.00000   37.09380   51.90835   11.79854
    6296      643        6     0.00000   36.89796   52.87049   11.66972
    6297      643        6     0.00000   37.02151   51.51666   10.89213
    6298      644        5     0.00000   45.65814   38.99757   24.24691
    6299      644        6     0.00000   46.16313   38.33380   24.78029
    6300      644        6     0.00000   44.95941   38.46603   23.78924
    6301      645        5     0.00000   28.02606   36.69081    9.27963
    6302      645        6     0.00000   27.51502   36.51757   10.11006
    6303      645        6     0.00000   27.44457   37.29464    8.75256
    6304      646        5     0.00000   28.26764   35.59487   15.26722
    6305      646        6     0.00000   28.19588   34.97316   16.03483
    6306      646        6     0.00000   27.72664   35.17163   14.55430
    6307      647        5     0.00000   49.35395   49.42099   14.03616
    6308      647        6     0.00000   48.86789   50.05610   14.62028
    6309      647        6     0.00000   48.66521   49.08608   13.40919
    6310      648        5     0.00000   42.19445   29.91432   25.27135
    6311      648        6     0.00000   41.96548   29.49713   24.40201
    6312      648        6     0.00000   41.65318   30.74238   25.29921
    6313      649        5     0.00000   37.32225   26.51082    4.22525
    6314      649        6     0.00000   36.68240   25.82707    4.54649
    6315      649        6     0.00000   36.76153   27.16276    3.73498
    6316      650        5     0.00000   44.36767   39.38532   13.82428
    6317      650        6     0.00000   45.30246   39.13716   14.03695
    6318      650        6     0.00000   43.88239   38.52255   13.79458
    6319      651        5     0.00000   40.39241   49.77693   11.10375
    6320      651        6     0.00000   39.42738   49.89075   10.91368
    6321      651        6     0.00000   40.61428   50.52245   11.71625
    6322      652        5     0.00000   50.81030   51.76245   16.90627
    6323      652        6     0.00000   50.44963   52.58579   17.32189
    6324      652        6     0.00000   51.57029   51.50509   17.48645
    6325      653        5     0.00000   36.92109   35.02626   22.82289
    6326      653        6     0.00000   36.30359   34.41007   22.35470
    6327      653        6     0.00000   37.57382   34.43321   23.27294
    6328      654        5     0.00000   28.04367   28.95192    1.55861
    6329      654        6     0.00000   27.76160   29.84202    1.22791
    6330      654        6     0.00000   27.27895   28.35623    1.35856
    6331      655        5     0.00000   36.71684   29.10885   25.29658
    6332      655        6     0.00000   37.24838   28.36464   24.91672
    6333      655        6     0.00000   36.46894   28.80102   26.20457
    6334      656        5     0.00000   39.50598   37.37088   19.87996
    6335      656        6     0.00000   39.78358   38.30331   20.06266
    6336      656        6     0.00000   38.53464   37.35957   20.07107
    6337      657        5     0.00000   34.31544   37.48602    0.35489
    6338      657        6     0.00000   35.02968   36.98681    0.82570
    6339      657        6     0.00000   33.71660   37.80305    1.07702
    6340      658        5     0.00000   47.05429   44.94784   18.11420
    6341      658        6     0.00000   47.26407   45.53748   18.88128
    6342      658        6     0.00000   47.86790   44.39553   18.00038
    6343      659        5     0.00000   51.14101   41.59797    2.28126
    6344      659        6     0.00000   51.23196   42.44497    1.77680
    6345      659        6     0.00000   51.10420   41.87557    3.23078
    6346      660        5     0.00000   30.97372   52.50535   10.71153
    6347      660        6     0.00000   31.94768   52.34604   10.79381
    6348      660        6     0.00000   30.55653   51.71408   11.13582
    6349      661        5     0.00000   40.96312   51.39968   22.14624
    6350      661        6     0.00000   40.41213   52.21566   22.25060
    6351      661        6     0.00000   40.81302   50.88864   22.98088
    6352      662        5     0.00000   36.63482   40.10193   21.60892
    6353      662        6     0.00000   36.82698   40.13085   22.57973
    6354      662        6     0.00000   37.26967   39.43316   21.24851
    6355      663        5     0.00000   47.38867   31.99027    4.84460
    6356      663        6     0.00000   46.54562   31.73370    5.29491
    6357      663        6     0.00000   47.49593   31.32729    4.11695
    6358      664        5     0.00000   40.71076   37.33250    2.49525
    6359      664        6     0.00000   40.72311   38.30962    2.33673
    6360      664        6     0.00000   41.55854   37.14428    2.97106
    6361      665        5     0.00000   32.19768   31.01762   20.42833
    6362      665        6     0.00000   31.45452   31.39511   19.89521
    6363      665        6     0.00000   31.98133   30.05522   20.50588
    6364      666        5     0.00000   47.44913   37.26809   12.16657
    6365      666        6     0.00000   48.08635   37.60563   12.84532
    6366      666        6     0.00000   47.88341   36.45711   11.80038
    6367      667        5     0.00000   47.97936   51.96198   24.23771
    6368      667        6     0.00000   48.70543   52.61628   24.07788
    6369      667        6     0.00000   47.97805   51.39074   23.42883
    6370      668        5     0.00000   40.56249   51.86498    5.60852
    6371      668        6     0.00000   40.44446   52.02270    4.63824
    6372      668        6     0.00000   40.02306   51.05610    5.79569
    6373      669        5     0.00000   42.31905   43.36925   26.12754
    6374      669        6     0.00000   42.80643   42.72809   25.55184
    6375      669        6     0.00000   42.11269   44.13160   25.53002
    6376      670        5     0.00000   40.12348   28.83309    3.21554
    6377      670        6     0.00000   40.28226   28.63567    4.17268
    6378      670        6     0.00000   40.12716   29.82178    3.16112
    6379      671        5     0.00000   43.73649   49.92624   16.69098
    6380      671        6     0.00000   43.87188   50.90310   16.60265
    6381      671        6     0.00000   43.90132   49.57004   15.78220
    6382      672        5     0.00000   32.97633   44.71309    6.10642
    6383      672        6     0.00000   33.17875   43.75174    5.98470
    6384      672        6     0.00000   32.06046   44.72912    6.48260
    6385      444        1     0.00000   34.57621   32.64537   51.22381
    6386      444        1     0.00000   34.55150   45.84426   38.10825
    6387      444        1     0.00000   47.72936   32.73317   38.11193
    6388      444        1     0.00000   47.70045   45.84767   51.27481
    6389      444        1     0.00000   44.31614   46.15761   51.27061
    6390      444        1     0.00000   44.29485   32.97554   38.10195
    6391      444        1     0.00000   31.16667   46.13737   38.10326
    6392      444        1     0.00000   31.17771   32.97843   51.22302
    6393      444        1     0.00000   44.31167   32.72449   27.59730
    6394      444        1     0.00000   44.27829   45.83585   40.75019
    6395      444        1     0.00000   31.17719   32.69558   40.76360
    6396      444        1     0.00000   31.16115   45.84873   27.60992
    6397      444        1     0.00000   34.56806   46.13763   27.61202
    6398      444        1     0.00000   34.54914   33.01156   40.77648
    6399      444        1     0.00000   47.67652   46.10240   40.78515
    6400      444        1     0.00000   47.74014   33.01734   27.60729
    6401      444        1     0.00000   51.26035   34.58384   32.71871
    6402      444        1     0.00000   51.25273   47.69677   45.85661
    6403      444        1     0.00000   38.09064   34.54914   45.93337
    6404      444        1     0.00000   38.09380   47.71412   32.72134
    6405      444        1     0.00000   51.25273   44.30352   46.16865
    6406      444        1     0.00000   51.24458   31.15589   32.98553
    6407      444        1     0.00000   38.10063   44.30379   32.99447
    6408      444        1     0.00000   38.12245   31.04180   46.08374
    6409      444        1     0.00000   27.60492   44.30563   32.71003
    6410      444        1     0.00000   27.60860   31.11068   45.86949
    6411      444        1     0.00000   40.75150   44.29117   45.87449
    6412      444        1     0.00000   40.76123   31.16693   32.71135
    6413      444        1     0.00000   27.62727   34.56333   46.11476
    6414      444        1     0.00000   27.60992   47.72411   33.00682
    6415      444        1     0.00000   40.75965   34.58016   32.99762
    6416      444        1     0.00000   40.74861   47.69046   46.15787
    6417      444        1     0.00000   32.73343   51.25378   34.58752
    6418      444        1     0.00000   32.71450   38.12613   47.70255
    6419      444        1     0.00000   45.86450   51.25142   47.71306
    6420      444        1     0.00000   45.87370   38.10825   34.56754
    6421      444        1     0.00000   46.14131   51.23722   44.31614
    6422      444        1     0.00000   46.14788   38.10510   31.16720
    6423      444        1     0.00000   32.96844   51.25352   31.13539
    6424      444        1     0.00000   32.99789   38.12114   44.29879
    6425      444        1     0.00000   32.67744   27.54867   44.25384
    6426      444        1     0.00000   32.69847   40.73336   31.16141
    6427      444        1     0.00000   45.87712   27.60939   31.14354
    6428      444        1     0.00000   45.84531   40.73573   44.30484
    6429      444        1     0.00000   46.13369   27.60966   34.57726
    6430      444        1     0.00000   46.13080   40.75282   47.70229
    6431      444        1     0.00000   32.98579   27.56733   47.64288
    6432      444        1     0.00000   33.00420   40.74335   34.54808
    6433      444        1     0.00000   32.72265   34.52285   27.56891
    6434      444        1     0.00000   32.69190   47.66575   40.74414
    6435      444        1     0.00000   45.88080   34.58068   40.74993
    6436      444        1     0.00000   45.85635   47.70097   27.63121
    6437      444        1     0.00000   46.15498   44.30904   27.61833
    6438      444        1     0.00000   46.12896   31.14459   40.75597
    6439      444        1     0.00000   33.02181   44.30089   40.74572
    6440      444        1     0.00000   33.01629   31.12987   27.60282
    6441      444        1     0.00000   32.71766   44.28933   51.25404
    6442      444        1     0.00000   32.70241   31.17088   38.11851
    6443      444        1     0.00000   45.85766   44.28959   38.09774
    6444      444        1     0.00000   45.91865   31.18402   51.22434
    6445      444        1     0.00000   46.16576   34.57884   51.26482
    6446      444        1     0.00000   46.14657   47.69966   38.13954
    6447      444        1     0.00000   33.02812   34.54756   38.12508
    6448      444        1     0.00000   32.99526   47.69440   51.25772
    6449      444        1     0.00000   34.54467   51.21593   46.12606
    6450      444        1     0.00000   34.54835   38.10563   33.01839
    6451      444        1     0.00000   47.71359   51.24221   33.00209
    6452      444        1     0.00000   47.70123   38.09853   46.13001
    6453      444        1     0.00000   44.29091   51.25483   32.73054
    6454      444        1     0.00000   44.26541   38.10063   45.86397
    6455      444        1     0.00000   31.16063   51.21120   45.82770
    6456      444        1     0.00000   31.17692   38.08275   32.69558
    6457      444        1     0.00000   44.29695   27.61044   46.14736
    6458      444        1     0.00000   44.29248   40.74388   33.01261
    6459      444        1     0.00000   31.13302   27.61912   32.98211
    6460      444        1     0.00000   31.14801   40.76649   46.14236
    6461      444        1     0.00000   34.58226   27.60913   32.75157
    6462      444        1     0.00000   34.54966   40.75913   45.85425
    6463      444        1     0.00000   47.72095   27.60124   45.86687
    6464      444        1     0.00000   47.70886   40.75361   32.72922
    6465      444        1     0.00000   51.25588   32.73317   44.27960
    6466      444        1     0.00000   51.24379   45.87423   31.15878
    6467      444        1     0.00000   38.11246   32.73448   31.14985
    6468      444        1     0.00000   38.11193   45.85530   44.30826
    6469      444        1     0.00000   51.26246   46.14447   34.55544
    6470      444        1     0.00000   51.27008   32.98317   47.72174
    6471      444        1     0.00000   38.10484   46.13973   47.72200
    6472      444        1     0.00000   38.12008   33.00709   34.55098
    6473      444        1     0.00000   27.60124   32.73422   34.57017
    6474      444        1     0.00000   27.61176   45.85898   47.70360
    6475      444        1     0.00000   40.77385   32.75840   47.72463
    6476      444        1     0.00000   40.74546   45.86765   34.56281
    6477      444        1     0.00000   27.59099   46.13080   44.30694
    6478      444        1     0.00000   27.60966   32.98842   31.14538
    6479      444        1     0.00000   40.73941   46.15025   31.15142
    6480      444        1     0.00000   40.74072   32.94189   44.22781
    6481      444        1     0.00000   44.29353   46.14184   27.61833
    6482      444        1     0.00000   44.31877   33.01418   40.74020
    6483      444        1     0.00000   31.13066   46.09820   40.74125
    6484      444        1     0.00000   31.17614   32.94636   27.60440
    6485      444        1     0.00000   34.58541   32.68953   27.58258
    6486      444        1     0.00000   34.57910   45.87107   40.74756
    6487      444        1     0.00000   47.69282   32.70819   40.75597
    6488      444        1     0.00000   47.72095   45.86871   27.62175
    6489      444        1     0.00000   34.56281   46.13395   51.24800
    6490      444        1     0.00000   34.59225   32.98317   38.12403
    6491      444        1     0.00000   47.71674   46.13868   38.13007
    6492      444        1     0.00000   47.73225   33.01787   51.26298
    6493      444        1     0.00000   44.33980   32.73422   51.24721
    6494      444        1     0.00000   44.30458   45.86108   38.10747
    6495      444        1     0.00000   31.14722   32.74079   38.11325
    6496      444        1     0.00000   31.15510   45.85346   51.25956
    6497      444        1     0.00000   27.60151   44.28985   46.14631
    6498      444        1     0.00000   27.59730   31.16588   33.01103
    6499      444        1     0.00000   40.74440   44.30694   32.99789
    6500      444        1     0.00000   40.77464   31.18428   46.17207
    6501      444        1     0.00000   27.61596   34.55834   32.70267
    6502      444        1     0.00000   27.60414   47.70150   45.86397
    6503      444        1     0.00000   40.73626   34.48788   45.80877
    6504      444        1     0.00000   40.73994   47.71306   32.71608
    6505      444        1     0.00000   51.26062   34.53625   46.14788
    6506      444        1     0.00000   51.25036   47.72647   33.01655
    6507      444        1     0.00000   38.11167   34.57674   32.99762
    6508      444        1     0.00000   38.10904   47.69571   46.15051
    6509      444        1     0.00000   51.26430   44.29958   32.72134
    6510      444        1     0.00000   51.25194   31.17061   45.84505
    6511      444        1     0.00000   38.10221   44.29380   45.87265
    6512      444        1     0.00000   38.12666   31.16667   32.70951
    6513      444        1     0.00000   46.15051   27.61044   44.30826
    6514      444        1     0.00000   46.14394   40.75282   31.16063
    6515      444        1     0.00000   33.02628   27.61097   31.18087
    6516      444        1     0.00000   32.99131   40.76544   44.28591
    6517      444        1     0.00000   32.70294   27.61938   34.53547
    6518      444        1     0.00000   32.71792   40.75939   47.70202
    6519      444        1     0.00000   45.88159   27.63253   47.68494
    6520      444        1     0.00000   45.86292   40.75019   34.56123
    6521      444        1     0.00000   46.15051   51.25194   34.56517
    6522      444        1     0.00000   46.14709   38.09380   47.70360
    6523      444        1     0.00000   32.97922   51.23223   47.68862
    6524      444        1     0.00000   32.98317   38.09774   34.58016
    6525      444        1     0.00000   32.71240   51.20278   44.25331
    6526      444        1     0.00000   32.74263   38.09038   31.13407
    6527      444        1     0.00000   45.85346   51.24747   31.16720
    6528      444        1     0.00000   45.83637   38.09774   44.31036
    6529      444        1     0.00000   46.13027   44.29432   51.26482
    6530      444        1     0.00000   46.16786   31.16667   38.11535
    6531      444        1     0.00000   32.99237   44.27513   38.10063
    6532      444        1     0.00000   33.02733   31.07151   51.25142
    6533      444        1     0.00000   32.75972   34.52521   51.21330
    6534      444        1     0.00000   32.72949   47.70281   38.11246
    6535      444        1     0.00000   45.85372   34.54361   38.10773
    6536      444        1     0.00000   45.88106   47.72069   51.25956
    6537      444        1     0.00000   46.15498   34.56070   27.61675
    6538      444        1     0.00000   46.11502   47.66601   40.78436
    6539      444        1     0.00000   32.99237   34.57910   40.76885
    6540      444        1     0.00000   32.99552   47.69361   27.60361
    6541      444        1     0.00000   32.72134   44.28144   27.61044
    6542      444        1     0.00000   32.74079   31.13092   40.76649
    6543      444        1     0.00000   45.84215   44.26803   40.75071
    6544      444        1     0.00000   45.87186   31.15826   27.60098
    6545      444        1     0.00000   44.31509   27.61071   32.70872
    6546      444        1     0.00000   44.28617   40.74651   45.87607
    6547      444        1     0.00000   31.12146   27.54604   45.82480
    6548      444        1     0.00000   31.13302   40.73021   32.72318
    6549      444        1     0.00000   34.54651   27.57206   46.08006
    6550      444        1     0.00000   34.56570   40.74940   32.98264
    6551      444        1     0.00000   47.70071   27.60335   33.01865
    6552      444        1     0.00000   47.69414   40.74046   46.13973
    6553      444        1     0.00000   34.53757   51.26167   32.68822
    6554      444        1     0.00000   34.55728   38.12876   45.86871
    6555      444        1     0.00000   47.72174   51.26062   45.85661
    6556      444        1     0.00000   47.71438   38.11719   32.72081
    6557      444        1     0.00000   44.29485   51.25904   46.15393
    6558      444        1     0.00000   44.30089   38.09879   33.00735
    6559      444        1     0.00000   31.16983   51.25799   33.02549
    6560      444        1     0.00000   31.14669   38.11930   46.14263
    6561      444        1     0.00000   27.61702   46.13816   34.55728
    6562      444        1     0.00000   27.62438   33.00288   47.68099
    6563      444        1     0.00000   40.75255   46.13789   47.72857
    6564      444        1     0.00000   40.75913   33.00157   34.54835
    6565      444        1     0.00000   27.59546   32.66587   44.29853
    6566      444        1     0.00000   27.61465   45.87712   31.16010
    6567      444        1     0.00000   40.76570   32.72975   31.15064
    6568      444        1     0.00000   40.74756   45.85372   44.30983
    6569      444        1     0.00000   51.24064   46.11818   44.30852
    6570      444        1     0.00000   51.25641   33.01681   31.15800
    6571      444        1     0.00000   38.09669   46.15183   31.15616
    6572      444        1     0.00000   38.09090   33.00945   44.34821
    6573      444        1     0.00000   51.24616   32.72213   34.54677
    6574      444        1     0.00000   51.24563   45.87055   47.72963
    6575      444        1     0.00000   38.15794   32.57544   47.67416
    6576      444        1     0.00000   38.10010   45.86424   34.56175
    6577      444        2     0.00000   33.61854   33.55388   26.25373
    6578      444        2     0.00000   33.60067   46.73542   39.42738
    6579      444        2     0.00000   46.76696   33.61986   39.43185
    6580      444        2     0.00000   46.77353   46.77196   26.29815
    6581      444        2     0.00000   45.26566   45.26514   26.29579
    6582      444        2     0.00000   45.25856   32.10673   39.42870
    6583      444        2     0.00000   32.09753   45.22255   39.42449
    6584      444        2     0.00000   32.09858   32.04101   26.25977
    6585      444        2     0.00000   45.28564   33.60724   26.28632
    6586      444        2     0.00000   45.25699   46.71938   39.44683
    6587      444        2     0.00000   32.11461   33.61302   39.44184
    6588      444        2     0.00000   32.12408   46.72622   26.28895
    6589      444        2     0.00000   33.64247   45.21887   26.29289
    6590      444        2     0.00000   33.62617   32.09174   39.44894
    6591      444        2     0.00000   46.77748   45.20099   39.44263
    6592      444        2     0.00000   46.80429   32.09753   26.29184
    6593      444        2     0.00000   26.28659   33.62459   33.60987
    6594      444        2     0.00000   26.28133   46.77038   46.78063
    6595      444        2     0.00000   39.43080   33.53547   46.71886
    6596      444        2     0.00000   39.41976   46.76565   33.61618
    6597      444        2     0.00000   26.27712   45.25225   45.27381
    6598      444        2     0.00000   26.28291   32.11014   32.10331
    6599      444        2     0.00000   39.41976   45.25777   32.10410
    6600      444        2     0.00000   39.43238   32.04206   45.20678
    6601      444        2     0.00000   26.29237   45.27696   33.58043
    6602      444        2     0.00000   26.29579   32.08491   46.75750
    6603      444        2     0.00000   39.42870   45.21571   46.79903
    6604      444        2     0.00000   39.44210   32.13223   33.58253
    6605      444        2     0.00000   26.29736   33.60330   45.24121
    6606      444        2     0.00000   26.28659   46.80009   32.08123
    6607      444        2     0.00000   39.43842   33.65272   32.07282
    6608      444        2     0.00000   39.42922   46.73042   45.27460
    6609      444        2     0.00000   33.61118   26.29184   33.61486
    6610      444        2     0.00000   33.58568   39.44315   46.73200
    6611      444        2     0.00000   46.77485   26.28159   46.77327
    6612      444        2     0.00000   46.74698   39.43316   33.60067
    6613      444        2     0.00000   45.22991   26.28659   45.22991
    6614      444        2     0.00000   45.23333   39.43132   32.08727
    6615      444        2     0.00000   32.09805   26.29316   32.10594
    6616      444        2     0.00000   32.06992   39.44158   45.21440
    6617      444        2     0.00000   33.62932   26.23664   45.17155
    6618      444        2     0.00000   33.61092   39.41976   32.10199
    6619      444        2     0.00000   46.77380   26.28369   32.09227
    6620      444        2     0.00000   46.72306   39.41818   45.26645
    6621      444        2     0.00000   45.26040   26.28843   33.60724
    6622      444        2     0.00000   45.21493   39.40819   46.77722
    6623      444        2     0.00000   32.11435   26.24531   46.69309
    6624      444        2     0.00000   32.09858   39.41266   33.61329
    6625      444        3     0.00000   34.79913   30.84885   49.63471
    6626      444        3     0.00000   34.11433   31.54311   50.76509
    6627      444        3     0.00000   34.75944   44.08980   36.48839
    6628      444        3     0.00000   34.07911   44.75699   37.62561
    6629      444        3     0.00000   44.10558   47.91338   49.65206
    6630      444        3     0.00000   44.79143   47.24172   50.78533
    6631      444        3     0.00000   44.10032   34.74787   36.49365
    6632      444        3     0.00000   44.76882   34.06649   37.62797
    6633      444        3     0.00000   30.97451   34.75628   49.61894
    6634      444        3     0.00000   31.66141   34.06412   50.74353
    6635      444        3     0.00000   44.10216   30.95611   29.20901
    6636      444        3     0.00000   44.78196   31.63407   28.07469
    6637      444        3     0.00000   44.07587   44.07114   42.36243
    6638      444        3     0.00000   44.75462   44.74726   41.22758
    6639      444        3     0.00000   30.94454   30.91352   42.35506
    6640      444        3     0.00000   31.64721   31.60305   41.23809
    6641      444        3     0.00000   34.75944   47.90812   29.21374
    6642      444        3     0.00000   34.08621   47.22542   28.08310
    6643      444        3     0.00000   34.76259   34.77679   42.39082
    6644      444        3     0.00000   34.07884   34.10172   41.25202
    6645      444        3     0.00000   49.66126   34.79151   30.94401
    6646      444        3     0.00000   50.78586   34.10960   31.62855
    6647      444        3     0.00000   36.48182   34.77074   44.14580
    6648      444        3     0.00000   37.61220   34.09067   44.83638
    6649      444        3     0.00000   49.62998   44.10084   47.91758
    6650      444        3     0.00000   50.76982   44.78091   47.25224
    6651      444        3     0.00000   49.63497   30.95716   34.75550
    6652      444        3     0.00000   50.76772   31.63302   34.07332
    6653      444        3     0.00000   36.48839   44.09900   34.75839
    6654      444        3     0.00000   37.62298   44.77671   34.08358
    6655      444        3     0.00000   29.22005   44.09480   30.95085
    6656      444        3     0.00000   28.08626   44.78249   31.62802
    6657      444        3     0.00000   42.35769   44.08612   44.10531
    6658      444        3     0.00000   41.22626   44.76619   44.78486
    6659      444        3     0.00000   42.38424   30.96846   30.95242
    6660      444        3     0.00000   41.24440   31.64301   31.62724
    6661      444        3     0.00000   29.23241   34.76969   47.89393
    6662      444        3     0.00000   28.10203   34.09094   47.20676
    6663      444        3     0.00000   42.38083   34.75392   34.75576
    6664      444        3     0.00000   41.24098   34.09146   34.07990
    6665      444        3     0.00000   30.96294   49.63681   34.77758
    6666      444        3     0.00000   31.64275   50.77744   34.11249
    6667      444        3     0.00000   30.95742   36.50496   47.90575
    6668      444        3     0.00000   31.62750   37.64401   47.22963
    6669      444        3     0.00000   47.89287   49.61131   44.12214
    6670      444        3     0.00000   47.23331   50.76614   44.78433
    6671      444        3     0.00000   47.92100   36.50811   30.95374
    6672      444        3     0.00000   47.24146   37.63744   31.63433
    6673      444        3     0.00000   34.74656   49.64181   30.93718
    6674      444        3     0.00000   34.06176   50.77981   31.60436
    6675      444        3     0.00000   30.89459   29.13830   44.03986
    6676      444        3     0.00000   31.58281   28.01396   44.72728
    6677      444        3     0.00000   30.93323   42.34376   30.94848
    6678      444        3     0.00000   31.60726   41.20786   31.63276
    6679      444        3     0.00000   47.90444   29.22426   34.77390
    6680      444        3     0.00000   47.22306   28.08626   34.10303
    6681      444        3     0.00000   47.89734   42.36847   47.90260
    6682      444        3     0.00000   47.22017   41.22810   47.22490
    6683      444        3     0.00000   34.76128   42.36400   34.75234
    6684      444        3     0.00000   34.09015   41.22547   34.07254
    6685      444        3     0.00000   30.97398   34.72500   29.20901
    6686      444        3     0.00000   31.64537   34.04362   28.06733
    6687      444        3     0.00000   30.92955   47.86921   42.34928
    6688      444        3     0.00000   31.60331   47.18809   41.21759
    6689      444        3     0.00000   47.91417   44.09506   29.23267
    6690      444        3     0.00000   47.24488   44.77749   28.09572
    6691      444        3     0.00000   47.88367   30.96636   42.38608
    6692      444        3     0.00000   47.21254   31.62566   41.23941
    6693      444        3     0.00000   34.78021   30.94349   29.22400
    6694      444        3     0.00000   34.10671   31.60883   28.07574
    6695      444        3     0.00000   30.95216   44.09822   49.63892
    6696      444        3     0.00000   31.62881   44.76777   50.77771
    6697      444        3     0.00000   30.95242   30.97293   36.49023
    6698      444        3     0.00000   31.62040   31.65063   37.63428
    6699      444        3     0.00000   47.91864   34.76443   49.63708
    6700      444        3     0.00000   47.25145   34.10198   50.78349
    6701      444        3     0.00000   47.91390   47.90707   36.51968
    6702      444        3     0.00000   47.23909   47.22989   37.65952
    6703      444        3     0.00000   34.77784   34.75366   36.50285
    6704      444        3     0.00000   34.11433   34.07148   37.64480
    6705      444        3     0.00000   34.75129   49.62577   47.90418
    6706      444        3     0.00000   34.06912   50.75142   47.22017
    6707      444        3     0.00000   34.75918   36.48945   34.77469
    6708      444        3     0.00000   34.07385   37.62456   34.10461
    6709      444        3     0.00000   44.08954   49.63786   30.96268
    6710      444        3     0.00000   44.76382   50.77429   31.64169
    6711      444        3     0.00000   44.07350   36.48235   44.09401
    6712      444        3     0.00000   44.74463   37.62088   44.77828
    6713      444        3     0.00000   30.98108   36.46342   30.93639
    6714      444        3     0.00000   31.65694   37.60484   31.60936
    6715      444        3     0.00000   44.13318   29.26106   47.88499
    6716      444        3     0.00000   44.79011   28.10650   47.21833
    6717      444        3     0.00000   44.09637   42.36716   34.76338
    6718      444        3     0.00000   44.77355   41.22837   34.09173
    6719      444        3     0.00000   30.95137   29.24213   34.75024
    6720      444        3     0.00000   31.61698   28.10203   34.06491
    6721      444        3     0.00000   34.78573   29.22137   30.97451
    6722      444        3     0.00000   34.11065   28.08836   31.66141
    6723      444        3     0.00000   34.76627   42.36795   44.08875
    6724      444        3     0.00000   34.08121   41.23678   44.76382
    6725      444        3     0.00000   49.62866   30.97293   44.09900
    6726      444        3     0.00000   50.77271   31.64827   44.75988
    6727      444        3     0.00000   36.50706   30.95926   30.95847
    6728      444        3     0.00000   37.64243   31.64222   31.62592
    6729      444        3     0.00000   49.64470   47.90470   34.78468
    6730      444        3     0.00000   50.77771   47.23673   34.09935
    6731      444        3     0.00000   36.48629   47.89918   47.90865
    6732      444        3     0.00000   37.62771   47.22490   47.23936
    6733      444        3     0.00000   36.49891   34.76627   34.76338
    6734      444        3     0.00000   37.63718   34.09541   34.08305
    6735      444        3     0.00000   29.21769   30.97004   34.76627
    6736      444        3     0.00000   28.07758   31.64432   34.09619
    6737      444        3     0.00000   42.41763   31.01000   47.89445
    6738      444        3     0.00000   41.26228   31.67508   47.24751
    6739      444        3     0.00000   29.20638   47.88472   44.08612
    6740      444        3     0.00000   28.07364   47.21859   44.77408
    6741      444        3     0.00000   29.23714   34.74288   30.93902
    6742      444        3     0.00000   28.09388   34.07595   31.61698
    6743      444        3     0.00000   42.35428   47.91154   30.95532
    6744      444        3     0.00000   41.21732   47.23778   31.62802
    6745      444        3     0.00000   44.08717   47.90602   29.23346
    6746      444        3     0.00000   44.76409   47.22910   28.09992
    6747      444        3     0.00000   44.10163   34.76443   42.35322
    6748      444        3     0.00000   44.79064   34.10093   41.22100
    6749      444        3     0.00000   34.78021   44.10084   42.35927
    6750      444        3     0.00000   34.10750   44.78065   41.22495
    6751      444        3     0.00000   34.75392   47.90023   49.63813
    6752      444        3     0.00000   34.08305   47.22385   50.77639
    6753      444        3     0.00000   44.17682   31.01946   49.58608
    6754      444        3     0.00000   44.83454   31.66719   50.74432
    6755      444        3     0.00000   44.09900   44.10663   36.48182
    6756      444        3     0.00000   44.77355   44.77513   37.62035
    6757      444        3     0.00000   29.22478   44.09900   47.90418
    6758      444        3     0.00000   28.08599   44.76961   47.22937
    6759      444        3     0.00000   42.36584   44.10400   34.75760
    6760      444        3     0.00000   41.22521   44.78065   34.08515
    6761      444        3     0.00000   42.35480   34.73026   44.06457
    6762      444        3     0.00000   41.21522   34.03048   44.71651
    6763      444        3     0.00000   49.64522   34.74708   47.90418
    6764      444        3     0.00000   50.78559   34.06649   47.23830
    6765      444        3     0.00000   49.63865   44.09900   30.96741
    6766      444        3     0.00000   50.77666   44.77802   31.63749
    6767      444        3     0.00000   36.50233   44.09217   44.09611
    6768      444        3     0.00000   37.63218   44.76829   44.78091
    6769      444        3     0.00000   47.90234   29.23530   44.11557
    6770      444        3     0.00000   47.23883   28.08678   44.78459
    6771      444        3     0.00000   47.91338   42.36006   30.95926
    6772      444        3     0.00000   47.23357   41.22837   31.63906
    6773      444        3     0.00000   30.95584   42.37136   47.90759
    6774      444        3     0.00000   31.62934   41.23941   47.23068
    6775      444        3     0.00000   47.91180   49.63340   34.77915
    6776      444        3     0.00000   47.23725   50.76851   34.09357
    6777      444        3     0.00000   47.91180   36.47840   47.89130
    6778      444        3     0.00000   47.23331   37.61562   47.21780
    6779      444        3     0.00000   30.94349   49.60211   44.07272
    6780      444        3     0.00000   31.62697   50.73065   44.73990
    6781      444        3     0.00000   47.89839   44.09269   49.64891
    6782      444        3     0.00000   47.22017   44.76672   50.78822
    6783      444        3     0.00000   47.92021   30.96084   36.49917
    6784      444        3     0.00000   47.25355   31.64275   37.63612
    6785      444        3     0.00000   30.96557   47.90129   36.49786
    6786      444        3     0.00000   31.64222   47.22700   37.63192
    6787      444        3     0.00000   47.93152   34.78862   29.21322
    6788      444        3     0.00000   47.25355   34.10066   28.08573
    6789      444        3     0.00000   47.84924   47.83925   42.42998
    6790      444        3     0.00000   47.18836   47.17811   41.27647
    6791      444        3     0.00000   30.95558   44.08481   29.22584
    6792      444        3     0.00000   31.63538   44.76172   28.09046
    6793      444        3     0.00000   44.11004   29.22820   30.94506
    6794      444        3     0.00000   44.78906   28.08915   31.62014
    6795      444        3     0.00000   44.08271   42.34954   44.10190
    6796      444        3     0.00000   44.76014   41.21706   44.78091
    6797      444        3     0.00000   34.75655   29.15722   47.86475
    6798      444        3     0.00000   34.07254   28.04235   47.17259
    6799      444        3     0.00000   34.76470   36.51153   44.11557
    6800      444        3     0.00000   34.08594   37.64848   44.78144
    6801      444        3     0.00000   44.10032   49.63681   47.91338
    6802      444        3     0.00000   44.77460   50.77666   47.23830
    6803      444        3     0.00000   44.11925   36.47709   34.76338
    6804      444        3     0.00000   44.78670   37.62219   34.09409
    6805      444        3     0.00000   29.22978   47.90707   34.77206
    6806      444        3     0.00000   28.09230   47.23331   34.09094
    6807      444        3     0.00000   42.37347   47.90050   47.91653
    6808      444        3     0.00000   41.23126   47.22227   47.24619
    6809      444        3     0.00000   29.18115   30.88434   44.06036
    6810      444        3     0.00000   28.06812   31.57335   44.76672
    6811      444        3     0.00000   49.61841   47.87631   44.11662
    6812      444        3     0.00000   50.76562   47.20965   44.77881
    6813      444        3     0.00000   36.48261   47.91443   30.95190
    6814      444        3     0.00000   37.61720   47.23936   31.63170
    6815      444        3     0.00000   36.54334   30.82072   47.90102
    6816      444        3     0.00000   37.67082   31.49527   47.19703
    6817      444        3     0.00000   35.99944   31.35384   49.09160
    6818      444        4     0.00000   36.48419   32.18953   49.57688
    6819      444        3     0.00000   35.91085   44.65631   35.91321
    6820      444        4     0.00000   36.33277   45.56087   36.33671
    6821      444        3     0.00000   42.95679   47.34346   49.07110
    6822      444        4     0.00000   42.54092   46.43626   49.49065
    6823      444        3     0.00000   42.94786   34.19293   35.90927
    6824      444        4     0.00000   42.52199   33.28995   36.33172
    6825      444        3     0.00000   29.81416   47.33662   35.91716
    6826      444        4     0.00000   29.39434   46.42706   36.33251
    6827      444        3     0.00000   42.95627   31.52524   29.79392
    6828      444        4     0.00000   42.53645   32.43138   29.37200
    6829      444        3     0.00000   42.92998   44.64159   42.94733
    6830      444        4     0.00000   42.51095   45.54773   42.52699
    6831      444        3     0.00000   29.80943   44.65552   29.80680
    6832      444        4     0.00000   29.39934   45.56666   29.39224
    6833      444        3     0.00000   35.90953   47.34977   29.79839
    6834      444        4     0.00000   36.33303   46.44546   29.38146
    6835      444        3     0.00000   35.91085   34.21107   42.98282
    6836      444        4     0.00000   36.33566   33.30808   42.56037
    6837      444        3     0.00000   49.07478   35.93372   31.51420
    6838      444        4     0.00000   49.48855   36.34802   32.42691
    6839      444        3     0.00000   49.06084   49.04665   44.66446
    6840      444        4     0.00000   49.51247   49.49381   45.54221
    6841      444        3     0.00000   35.90454   35.92583   44.69653
    6842      444        4     0.00000   36.31305   36.33960   45.61030
    6843      444        3     0.00000   49.04849   42.95390   47.34319
    6844      444        4     0.00000   49.47094   42.54223   46.43442
    6845      444        3     0.00000   49.05348   29.80180   34.20187
    6846      444        4     0.00000   49.46936   29.37804   33.29599
    6847      444        3     0.00000   35.92005   29.71295   47.31007
    6848      444        4     0.00000   36.31489   29.31048   46.38631
    6849      444        3     0.00000   29.78235   42.92919   31.50684
    6850      444        4     0.00000   29.35386   42.49912   32.40431
    6851      444        3     0.00000   29.72715   29.70007   44.58507
    6852      444        4     0.00000   29.28262   29.25107   45.46229
    6853      444        3     0.00000   29.80706   35.92636   47.34004
    6854      444        4     0.00000   29.38567   36.34907   46.43574
    6855      444        3     0.00000   29.81179   49.05848   34.21081
    6856      444        4     0.00000   29.39355   49.47882   33.30467
    6857      444        3     0.00000   31.52576   49.05401   35.92478
    6858      444        4     0.00000   32.42823   49.47593   36.34828
    6859      444        3     0.00000   44.66288   49.06479   49.06926
    6860      444        4     0.00000   45.56639   49.49013   49.48907
    6861      444        3     0.00000   44.67129   35.89928   35.91900
    6862      444        4     0.00000   45.57191   36.32304   36.34460
    6863      444        3     0.00000   47.29666   48.99933   43.00438
    6864      444        4     0.00000   46.38973   49.41836   42.58955
    6865      444        3     0.00000   47.36028   35.93188   29.79944
    6866      444        4     0.00000   46.45177   36.34959   29.38304
    6867      444        3     0.00000   34.19372   49.06084   29.78445
    6868      444        4     0.00000   33.29021   49.48145   29.35964
    6869      444        3     0.00000   31.48370   29.74318   42.91526
    6870      444        4     0.00000   32.39879   29.33519   42.50412
    6871      444        3     0.00000   44.66288   29.80101   29.78551
    6872      444        4     0.00000   45.56219   29.37436   29.35806
    6873      444        3     0.00000   47.35134   29.80706   35.92767
    6874      444        4     0.00000   46.44704   29.38882   36.35354
    6875      444        3     0.00000   34.19819   29.73556   49.01957
    6876      444        4     0.00000   33.26734   29.34834   49.41415
    6877      444        3     0.00000   31.54285   35.87510   29.78813
    6878      444        4     0.00000   32.44847   36.29229   29.36621
    6879      444        3     0.00000   44.64658   35.91795   42.94050
    6880      444        4     0.00000   45.54747   36.35117   42.52462
    6881      444        3     0.00000   47.35345   42.93734   29.80496
    6882      444        4     0.00000   46.45072   42.51463   29.37831
    6883      444        3     0.00000   34.21107   42.94996   42.93524
    6884      444        4     0.00000   33.30545   42.53382   42.51069
    6885      444        3     0.00000   34.22579   29.78997   29.81074
    6886      444        4     0.00000   33.32859   29.35938   29.38514
    6887      444        3     0.00000   31.51499   42.94681   49.06111
    6888      444        4     0.00000   32.41955   42.52383   49.48303
    6889      444        3     0.00000   31.51867   29.82257   35.90270
    6890      444        4     0.00000   32.42744   29.40564   36.31752
    6891      444        3     0.00000   44.65946   42.95049   35.90953
    6892      444        4     0.00000   45.56350   42.52988   36.33303
    6893      444        3     0.00000   47.34977   35.90454   49.04507
    6894      444        4     0.00000   46.43810   36.31884   49.45621
    6895      444        3     0.00000   34.20450   35.90270   35.92583
    6896      444        4     0.00000   33.29757   36.31857   36.34670
    6897      444        3     0.00000   35.90507   49.04796   47.34267
    6898      444        4     0.00000   36.32620   49.46594   46.43705
    6899      444        3     0.00000   35.91427   35.91900   34.20687
    6900      444        4     0.00000   36.32961   36.34565   33.30020
    6901      444        3     0.00000   42.93603   49.06058   31.52130
    6902      444        4     0.00000   42.51595   49.47856   32.42718
    6903      444        3     0.00000   42.92288   35.88404   44.64553
    6904      444        4     0.00000   42.49492   36.29334   45.55325
    6905      444        3     0.00000   29.82178   35.89455   31.49685
    6906      444        4     0.00000   29.39907   36.32278   32.39800
    6907      444        3     0.00000   42.97230   29.83887   47.34030
    6908      444        4     0.00000   42.52331   29.40091   46.45729
    6909      444        3     0.00000   42.94602   42.94970   34.19714
    6910      444        4     0.00000   42.52699   42.53119   33.29073
    6911      444        3     0.00000   29.79812   29.82205   34.19688
    6912      444        4     0.00000   29.37252   29.40196   33.29441
    6913      444        3     0.00000   35.93661   29.80680   31.52682
    6914      444        4     0.00000   36.36169   29.38698   32.43007
    6915      444        3     0.00000   35.91979   42.93971   44.65289
    6916      444        4     0.00000   36.33934   42.51227   45.55535
    6917      444        3     0.00000   49.04008   31.53181   42.95233
    6918      444        4     0.00000   49.46042   32.43349   42.52304
    6919      444        3     0.00000   49.06295   44.65815   29.81416
    6920      444        4     0.00000   49.48408   45.56219   29.39224
    6921      444        3     0.00000   35.92347   31.51761   29.80548
    6922      444        4     0.00000   36.33803   32.42481   29.38567
    6923      444        3     0.00000   49.06768   47.34425   35.93950
    6924      444        4     0.00000   49.49328   46.44099   36.35932
    6925      444        3     0.00000   49.06742   34.19451   49.05979
    6926      444        4     0.00000   49.48671   33.29047   49.48408
    6927      444        3     0.00000   35.92662   34.19635   35.91479
    6928      444        4     0.00000   36.35301   33.29152   36.32988
    6929      444        3     0.00000   29.79812   31.53207   35.91663
    6930      444        4     0.00000   29.37778   32.43743   36.33855
    6931      444        3     0.00000   29.80312   44.66314   49.05559
    6932      444        4     0.00000   29.38435   45.56929   49.47514
    6933      444        3     0.00000   29.77893   47.31323   42.93419
    6934      444        4     0.00000   29.35622   46.40682   42.51936
    6935      444        3     0.00000   29.81784   34.17112   29.79129
    6936      444        4     0.00000   29.39198   33.26681   29.37463
    6937      444        3     0.00000   42.93340   47.34609   29.80706
    6938      444        4     0.00000   42.51411   46.44231   29.38199
    6939      444        3     0.00000   42.95259   34.18347   42.91841
    6940      444        4     0.00000   42.54723   33.27417   42.49281
    6941      444        3     0.00000   35.93056   44.65867   42.94286
    6942      444        4     0.00000   36.35222   45.56561   42.52699
    6943      444        3     0.00000   35.90244   47.33583   49.05716
    6944      444        4     0.00000   36.32252   46.43100   49.47830
    6945      444        3     0.00000   43.03119   31.59438   49.01142
    6946      444        4     0.00000   42.62636   32.51156   49.42204
    6947      444        3     0.00000   42.94681   44.66840   35.90717
    6948      444        4     0.00000   42.52488   45.57165   36.33224
    6949      444        3     0.00000   29.80654   42.95049   47.34214
    6950      444        4     0.00000   29.38882   42.53093   46.43495
    6951      444        3     0.00000   29.79287   49.03351   44.64185
    6952      444        4     0.00000   29.37962   49.45753   45.54904
    6953      444        3     0.00000   49.06374   35.89508   47.33110
    6954      444        4     0.00000   49.48303   36.31069   46.42285
    6955      444        3     0.00000   49.06295   49.05322   34.21870
    6956      444        4     0.00000   49.47567   49.46752   33.30624
    6957      444        3     0.00000   49.06163   42.94391   31.52524
    6958      444        4     0.00000   49.48171   42.52436   32.42875
    6959      444        3     0.00000   49.05664   29.81915   44.66893
    6960      444        4     0.00000   49.48697   29.39828   45.56955
    6961      444        3     0.00000   47.32295   29.82047   42.97572
    6962      444        4     0.00000   46.41497   29.39934   42.56221
    6963      444        3     0.00000   44.72150   29.85648   49.01484
    6964      444        4     0.00000   45.62738   29.43377   49.43098
    6965      444        3     0.00000   47.35055   49.05716   35.93477
    6966      444        4     0.00000   46.44678   49.47909   36.35590
    6967      444        3     0.00000   34.19162   49.05270   49.05927
    6968      444        4     0.00000   33.28837   49.47567   49.48277
    6969      444        3     0.00000   31.49895   49.01905   42.92157
    6970      444        4     0.00000   32.40431   49.43597   42.49860
    6971      444        3     0.00000   44.65420   49.05585   29.81311
    6972      444        4     0.00000   45.56061   49.47725   29.39119
    6973      444        3     0.00000   47.33715   42.94234   49.06137
    6974      444        4     0.00000   46.43021   42.51726   49.47593
    6975      444        3     0.00000   34.19767   42.93997   35.90507
    6976      444        4     0.00000   33.29231   42.52068   36.32593
    6977      444        3     0.00000   31.52839   35.91742   49.04954
    6978      444        4     0.00000   32.43243   36.33987   49.47015
    6979      444        3     0.00000   34.20766   35.93477   42.96047
    6980      444        4     0.00000   33.31150   36.36326   42.52699
    6981      444        3     0.00000   31.50684   42.92446   29.80075
    6982      444        4     0.00000   32.41219   42.50201   29.38120
    6983      444        3     0.00000   44.63554   42.91789   42.94050
    6984      444        4     0.00000   45.53275   42.48913   42.51200
    6985      444        3     0.00000   42.96521   29.81652   31.51472
    6986      444        4     0.00000   42.54828   29.40170   32.42323
    6987      444        3     0.00000   42.93708   42.93471   44.66840
    6988      444        4     0.00000   42.51963   42.51752   45.57638
    6989      444        3     0.00000   35.91006   42.94838   34.19215
    6990      444        4     0.00000   36.33119   42.53040   33.28705
    6991      444        3     0.00000   35.89665   49.06453   31.51052
    6992      444        4     0.00000   36.30753   49.48198   32.42087
    6993      444        3     0.00000   42.95154   49.05086   47.34898
    6994      444        4     0.00000   42.53040   49.46699   46.44073
    6995      444        3     0.00000   42.97598   35.89455   34.18636
    6996      444        4     0.00000   42.56589   36.30780   33.27365
    6997      444        3     0.00000   29.81337   34.20398   49.04560
    6998      444        4     0.00000   29.38698   33.30335   49.46962
    6999      444        3     0.00000   29.78813   31.47477   42.93235
    7000      444        4     0.00000   29.38961   32.40325   42.53698
    7001      444        3     0.00000   49.01090   47.28773   42.99465
    7002      444        4     0.00000   49.42309   46.37632   42.58114
    7003      444        3     0.00000   49.09318   34.23868   29.78288
    7004      444        4     0.00000   49.52220   33.34226   29.35386
    7005      444        3     0.00000   49.06584   31.52156   35.91032
    7006      444        4     0.00000   49.48934   32.42639   36.32751
    7007      444        3     0.00000   49.05138   44.65552   49.07294
    7008      444        4     0.00000   49.46857   45.55825   49.49854
    7009      673        5     0.00000   36.11274   39.78805   38.44185
    7010      673        6     0.00000   35.53467   40.51885   38.10641
    7011      673        6     0.00000   36.12115   39.90871   39.42475
    7012      674        5     0.00000   41.70680   29.10439   36.34539
    7013      674        6     0.00000   41.64003   28.93167   37.31804
    7014      674        6     0.00000   42.46390   29.73687   36.25653
    7015      675        5     0.00000   50.30558   49.72409   50.53638
    7016      675        6     0.00000   50.88654   48.92757   50.62629
    7017      675        6     0.00000   49.40863   49.35474   50.33739
    7018      676        5     0.00000   38.21656   51.19621   27.92380
    7019      676        6     0.00000   38.36062   51.09500   26.94930
    7020      676        6     0.00000   38.70814   50.43754   28.32837
    7021      677        5     0.00000   48.56190   36.02704   42.93366
    7022      677        6     0.00000   48.10843   36.72262   43.47283
    7023      677        6     0.00000   48.65417   35.25707   43.54906
    7024      678        5     0.00000   26.97165   47.49750   38.52649
    7025      678        6     0.00000   27.75608   47.72358   37.96656
    7026      678        6     0.00000   26.76503   46.55745   38.29490
    7027      679        5     0.00000   39.47444   28.66748   42.60979
    7028      679        6     0.00000   39.66581   27.97374   41.92973
    7029      679        6     0.00000   39.92922   29.47951   42.27147
    7030      680        5     0.00000   31.41036   27.18563   50.11341
    7031      680        6     0.00000   32.14090   27.42590   50.73722
    7032      680        6     0.00000   31.15905   28.04078   49.68177
    7033      681        5     0.00000   28.90328   42.51831   26.57155
    7034      681        6     0.00000   29.83387   42.85191   26.51608
    7035      681        6     0.00000   28.35045   43.33639   26.64910
    7036      682        5     0.00000   40.91606   38.14558   34.94556
    7037      682        6     0.00000   41.66632   38.11956   35.59145
    7038      682        6     0.00000   40.10219   38.14006   35.50864
    7039      683        5     0.00000   48.76116   42.47757   41.96075
    7040      683        6     0.00000   47.98620   42.95364   42.35007
    7041      683        6     0.00000   48.53325   42.38004   41.00203
    7042      684        5     0.00000   37.31857   52.10866   33.66323
    7043      684        6     0.00000   37.95736   52.84657   33.49736
    7044      684        6     0.00000   37.74154   51.31714   33.24526
    7045      685        5     0.00000   40.18947   41.96758   50.19359
    7046      685        6     0.00000   39.66502   42.06853   49.35974
    7047      685        6     0.00000   40.17580   42.86820   50.60447
    7048      686        5     0.00000   50.56662   40.83589   51.62628
    7049      686        6     0.00000   49.99985   41.64634   51.67833
    7050      686        6     0.00000   50.66204   40.66107   50.65626
    7051      687        5     0.00000   26.58627   52.61549   37.27282
    7052      687        6     0.00000   25.67723   52.45908   36.91294
    7053      687        6     0.00000   27.07470   51.77507   37.08513
    7054      688        5     0.00000   27.60045   51.94358   42.04723
    7055      688        6     0.00000   28.07574   51.15415   42.40974
    7056      688        6     0.00000   27.82942   51.95199   41.08404
    7057      689        5     0.00000   52.47039   27.12885   45.84846
    7058      689        6     0.00000   52.27375   28.01922   45.46203
    7059      689        6     0.00000   52.84446   27.32364   46.74462
    7060      690        5     0.00000   51.32318   44.30852   38.64716
    7061      690        6     0.00000   50.51167   43.97361   39.10457
    7062      690        6     0.00000   50.98564   44.72466   37.81436
    7063      691        5     0.00000   40.72548   42.38740   30.64275
    7064      691        6     0.00000   41.40160   42.93498   30.16983
    7065      691        6     0.00000   40.88951   41.46285   30.32888
    7066      692        5     0.00000   49.46857   28.06470   40.91580
    7067      692        6     0.00000   49.43650   27.84125   41.87952
    7068      692        6     0.00000   48.80769   28.79103   40.80040
    7069      693        5     0.00000   39.37559   34.08568   52.26061
    7070      693        6     0.00000   38.64479   33.82622   51.64521
    7071      693        6     0.00000   39.16923   35.02127   52.51087
    7072      694        5     0.00000   36.21868   29.88619   35.45239
    7073      694        6     0.00000   35.30780   30.06021   35.79939
    7074      694        6     0.00000   36.73235   30.70059   35.68346
    7075      695        5     0.00000   34.20871   27.49635   40.22706
    7076      695        6     0.00000   34.60066   28.39619   40.35850
    7077      695        6     0.00000   34.94345   26.87123   40.44998
    7078      696        5     0.00000   50.93070   38.59327   29.15276
    7079      696        6     0.00000   51.16388   38.52623   30.11253
    7080      696        6     0.00000   49.97225   38.84274   29.14697
    7081      697        5     0.00000   45.43338   52.58500   38.30331
    7082      697        6     0.00000   45.66313   51.65993   38.03412
    7083      697        6     0.00000   44.47624   52.54031   38.55383
    7084      698        5     0.00000   26.87281   34.22606   38.26072
    7085      698        6     0.00000   26.66513   34.09909   37.30095
    7086      698        6     0.00000   27.84782   34.39798   38.28359
    7087      699        5     0.00000   34.93057   50.16467   39.41949
    7088      699        6     0.00000   35.07410   50.33502   40.38426
    7089      699        6     0.00000   34.50918   50.99432   39.08064
    7090      700        5     0.00000   43.18103   39.41581   30.44402
    7091      700        6     0.00000   42.63004   39.32512   29.62962
    7092      700        6     0.00000   43.55195   40.33116   30.38303
    7093      701        5     0.00000   42.28540   50.31504   26.44720
    7094      701        6     0.00000   43.20022   49.98986   26.64331
    7095      701        6     0.00000   41.77358   50.13103   27.27501
    7096      702        5     0.00000   30.44323   43.46783   35.21843
    7097      702        6     0.00000   29.77289   42.79355   35.49445
    7098      702        6     0.00000   30.88960   43.06405   34.43268
    7099      703        5     0.00000   40.21392   51.28559   40.78068
    7100      703        6     0.00000   39.23180   51.37181   40.87295
    7101      703        6     0.00000   40.54146   51.17124   41.70786
    7102      704        5     0.00000   37.65584   43.08403   39.71418
    7103      704        6     0.00000   38.48496   42.56537   39.55803
    7104      704        6     0.00000   37.23129   42.64581   40.49414
    7105      705        5     0.00000   27.92169   39.91318   46.67364
    7106      705        6     0.00000   27.34730   39.18948   47.03010
    7107      705        6     0.00000   27.51081   40.15135   45.80456
    7108      706        5     0.00000   34.40324   34.68636   30.77078
    7109      706        6     0.00000   35.20765   35.13483   30.40695
    7110      706        6     0.00000   34.69898   34.30755   31.63644
    7111      707        5     0.00000   30.77577   40.61743   39.77727
    7112      707        6     0.00000   30.67877   39.67344   40.05961
    7113      707        6     0.00000   31.75315   40.75098   39.69000
    7114      708        5     0.00000   38.85062   36.16479   41.31696
    7115      708        6     0.00000   39.26098   36.98708   40.94892
    7116      708        6     0.00000   38.84011   35.53125   40.55592
    7117      709        5     0.00000   39.77990   44.63685   27.39988
    7118      709        6     0.00000   40.52096   45.29037   27.33521
    7119      709        6     0.00000   39.64373   44.51225   28.37253
    7120      710        5     0.00000   36.29965   42.59192   29.48714
    7121      710        6     0.00000   37.18161   42.88950   29.14881
    7122      710        6     0.00000   35.64219   43.09717   28.94561
    7123      711        5     0.00000   30.57861   29.91668   29.74239
    7124      711        6     0.00000   30.83571   29.11069   29.22741
    7125      711        6     0.00000   29.58992   29.88592   29.77420
    7126      712        5     0.00000   51.61498   50.96751   31.99316
    7127      712        6     0.00000   51.51456   51.86024   32.40983
    7128      712        6     0.00000   52.44962   50.60368   32.38249
    7129      713        5     0.00000   39.00546   37.47419   31.53181
    7130      713        6     0.00000   38.94868   36.78072   30.82729
    7131      713        6     0.00000   39.17896   38.31593   31.03996
    7132      714        5     0.00000   52.30425   37.73602   49.93387
    7133      714        6     0.00000   52.92149   38.45236   50.22855
    7134      714        6     0.00000   52.77769   36.89454   50.15363
    7135      715        5     0.00000   40.87716   38.50494   38.53701
    7136      715        6     0.00000   40.53778   37.80253   37.92766
    7137      715        6     0.00000   40.90108   38.06856   39.42502
    7138      716        5     0.00000   50.37550   39.11745   36.45685
    7139      716        6     0.00000   51.30977   38.95052   36.73971
    7140      716        6     0.00000   49.82372   38.66161   37.14086
    7141      717        5     0.00000   37.86509   48.53430   51.23512
    7142      717        6     0.00000   37.20290   49.23960   51.44595
    7143      717        6     0.00000   37.71446   47.83898   51.92360
    7144      718        5     0.00000   27.78631   28.65302   51.01614
    7145      718        6     0.00000   26.95850   29.07337   51.36104
    7146      718        6     0.00000   28.50344   29.29970   51.23538
    7147      719        5     0.00000   28.34467   43.41210   38.57697
    7148      719        6     0.00000   27.69010   42.68813   38.41109
    7149      719        6     0.00000   28.88541   43.45232   37.74864
    7150      720        5     0.00000   50.20463   35.47210   40.14872
    7151      720        6     0.00000   50.51535   36.21474   39.57170
    7152      720        6     0.00000   49.32504   35.21580   39.77307
    7153      721        5     0.00000   52.45672   32.96371   26.97270
    7154      721        6     0.00000   51.99589   33.63432   27.53763
    7155      721        6     0.00000   52.63048   33.43479   26.11913
    7156      722        5     0.00000   43.17525   38.19763   26.83837
    7157      722        6     0.00000   42.94496   37.34406   26.39226
    7158      722        6     0.00000   42.36821   38.76046   26.72822
    7159      723        5     0.00000   27.24767   28.14961   31.05994
    7160      723        6     0.00000   28.17695   28.31995   31.35516
    7161      723        6     0.00000   26.69037   28.70928   31.65720
    7162      724        5     0.00000   39.72181   27.77422   52.51192
    7163      724        6     0.00000   40.09325   28.62411   52.16834
    7164      724        6     0.00000   39.88374   27.12254   51.78453
    7165      725        5     0.00000   52.00956   41.83246   36.50785
    7166      725        6     0.00000   51.16283   42.02410   36.98418
    7167      725        6     0.00000   52.41518   42.72204   36.35196
    7168      726        5     0.00000   40.91370   49.58003   43.88607
    7169      726        6     0.00000   40.13821   49.72172   44.48517
    7170      726        6     0.00000   40.72627   48.71989   43.43287
    7171      727        5     0.00000   30.68771   36.95711   39.41371
    7172      727        6     0.00000   29.86200   36.63350   38.97313
    7173      727        6     0.00000   31.31625   37.12956   38.66819
    7174      728        5     0.00000   42.85375   28.29998   42.24728
    7175      728        6     0.00000   42.79933   27.31655   42.35033
    7176      728        6     0.00000   43.61767   28.56811   42.81747
    7177      729        5     0.00000   27.12491   47.59293   28.12201
    7178      729        6     0.00000   26.63096   48.02852   27.38253
    7179      729        6     0.00000   26.45220   47.01880   28.56759
    7180      730        5     0.00000   50.58817   46.36791   26.75635
    7181      730        6     0.00000   51.44752   46.03038   26.39910
    7182      730        6     0.00000   50.41861   47.20229   26.25110
    7183      731        5     0.00000   48.02142   51.02455   27.95455
    7184      731        6     0.00000   47.92468   51.90888   27.51949
    7185      731        6     0.00000   47.39077   50.43728   27.46665
    7186      732        5     0.00000   41.31065   48.32584   39.92843
    7187      732        6     0.00000   41.42605   47.50066   39.39373
    7188      732        6     0.00000   40.87637   48.02274   40.76491
    7189      733        5     0.00000   38.78885   40.18263   44.02750
    7190      733        6     0.00000   39.77175   40.06118   44.04801
    7191      733        6     0.00000   38.59905   40.79987   44.77828
    7192      734        5     0.00000   30.38986   37.96367   27.79078
    7193      734        6     0.00000   30.61173   38.13112   26.84073
    7194      734        6     0.00000   29.42431   37.74364   27.78736
    7195      735        5     0.00000   47.53851   40.33247   26.66066
    7196      735        6     0.00000   46.62264   40.57459   26.37228
    7197      735        6     0.00000   47.54771   39.34221   26.65830
    7198      736        5     0.00000   41.54934   42.68393   38.42949
    7199      736        6     0.00000   42.01805   43.50490   38.72392
    7200      736        6     0.00000   40.88505   43.00096   37.76704
    7201      737        5     0.00000   44.86582   28.18194   52.49930
    7202      737        6     0.00000   44.43181   28.38567   51.63312
    7203      737        6     0.00000   44.15894   27.73873   53.03242
    7204      738        5     0.00000   29.57362   50.50589   49.00459
    7205      738        6     0.00000   29.05260   49.82556   49.50117
    7206      738        6     0.00000   30.49528   50.41835   49.35580
    7207      739        5     0.00000   37.09380   51.90835   38.08644
    7208      739        6     0.00000   36.89796   52.87049   37.95762
    7209      739        6     0.00000   37.02151   51.51666   37.18003
    7210      740        5     0.00000   45.65814   38.99757   50.53481
    7211      740        6     0.00000   46.16313   38.33380   51.06819
    7212      740        6     0.00000   44.95941   38.46603   50.07714
    7213      741        5     0.00000   28.02606   36.69081   35.56753
    7214      741        6     0.00000   27.51502   36.51757   36.39796
    7215      741        6     0.00000   27.44457   37.29464   35.04046
    7216      742        5     0.00000   28.26764   35.59487   41.55512
    7217      742        6     0.00000   28.19588   34.97316   42.32273
    7218      742        6     0.00000   27.72664   35.17163   40.84220
    7219      743        5     0.00000   49.35395   49.42099   40.32406
    7220      743        6     0.00000   48.86789   50.05610   40.90818
    7221      743        6     0.00000   48.66521   49.08608   39.69709
    7222      744        5     0.00000   42.19445   29.91432   51.55925
    7223      744        6     0.00000   41.96548   29.49713   50.68991
    7224      744        6     0.00000   41.65318   30.74238   51.58711
    7225      745        5     0.00000   37.32225   26.51082   30.51315
    7226      745        6     0.00000   36.68240   25.82707   30.83439
    7227      745        6     0.00000   36.76153   27.16276   30.02288
    7228      746        5     0.00000   44.36767   39.38532   40.11218
    7229      746        6     0.00000   45.30246   39.13716   40.32485
    7230      746        6     0.00000   43.88239   38.52255   40.08248
    7231      747        5     0.00000   40.39241   49.77693   37.39165
    7232      747        6     0.00000   39.42738   49.89075   37.20158
    7233      747        6     0.00000   40.61428   50.52245   38.00415
    7234      748        5     0.00000   50.81030   51.76245   43.19417
    7235      748        6     0.00000   50.44963   52.58579   43.60979
    7236      748        6     0.00000   51.57029   51.50509   43.77435
    7237      749        5     0.00000   36.92109   35.02626   49.11079
    7238      749        6     0.00000   36.30359   34.41007   48.64260
    7239      749        6     0.00000   37.57382   34.43321   49.56084
    7240      750        5     0.00000   28.04367   28.95192   27.84651
    7241      750        6     0.00000   27.76160   29.84202   27.51581
    7242      750        6     0.00000   27.27895   28.35623   27.64646
    7243      751        5     0.00000   36.71684   29.10885   51.58448
    7244      751        6     0.00000   37.24838   28.36464   51.20462
    7245      751        6     0.00000   36.46894   28.80102   52.49247
    7246      752        5     0.00000   39.50598   37.37088   46.16786
    7247      752        6     0.00000   39.78358   38.30331   46.35056
    7248      752        6     0.00000   38.53464   37.35957   46.35897
    7249      753        5     0.00000   34.31544   37.48602   26.64279
    7250      753        6     0.00000   35.02968   36.98681   27.11360
    7251      753        6     0.00000   33.71660   37.80305   27.36492
    7252      754        5     0.00000   47.05429   44.94784   44.40210
    7253      754        6     0.00000   47.26407   45.53748   45.16918
    7254      754        6     0.00000   47.86790   44.39553   44.28828
    7255      755        5     0.00000   51.14101   41.59797   28.56916
    7256      755        6     0.00000   51.23196   42.44497   28.06470
    7257      755        6     0.00000   51.10420   41.87557   29.51868
    7258      756        5     0.00000   30.97372   52.50535   36.99943
    7259      756        6     0.00000   31.94768   52.34604   37.08171
    7260      756        6     0.00000   30.55653   51.71408   37.42372
    7261      757        5     0.00000   40.96312   51.39968   48.43414
    7262      757        6     0.00000   40.41213   52.21566   48.53850
    7263      757        6     0.00000   40.81302   50.88864   49.26878
    7264      758        5     0.00000   36.63482   40.10193   47.89682
    7265      758        6     0.00000   36.82698   40.13085   48.86763
    7266      758        6     0.00000   37.26967   39.43316   47.53641
    7267      759        5     0.00000   47.38867   31.99027   31.13250
    7268      759        6     0.00000   46.54562   31.73370   31.58281
    7269      759        6     0.00000   47.49593   31.32729   30.40485
    7270      760        5     0.00000   40.71076   37.33250   28.78315
    7271      760        6     0.00000   40.72311   38.30962   28.62463
    7272      760        6     0.00000   41.55854   37.14428   29.25896
    7273      761        5     0.00000   32.19768   31.01762   46.71623
    7274      761        6     0.00000   31.45452   31.39511   46.18311
    7275      761        6     0.00000   31.98133   30.05522   46.79378
    7276      762        5     0.00000   47.44913   37.26809   38.45447
    7277      762        6     0.00000   48.08635   37.60563   39.13322
    7278      762        6     0.00000   47.88341   36.45711   38.08828
    7279      763        5     0.00000   47.97936   51.96198   50.52561
    7280      763        6     0.00000   48.70543   52.61628   50.36578
    7281      763        6     0.00000   47.97805   51.39074   49.71673
    7282      764        5     0.00000   40.56249   51.86498   31.89642
    7283      764        6     0.00000   40.44446   52.02270   30.92614
    7284      764        6     0.00000   40.02306   51.05610   32.08359
    7285      765        5     0.00000   42.31905   43.36925   52.41544
    7286      765        6     0.00000   42.80643   42.72809   51.83974
    7287      765        6     0.00000   42.11269   44.13160   51.81792
    7288      766        5     0.00000   40.12348   28.83309   29.50344
    7289      766        6     0.00000   40.28226   28.63567   30.46058
    7290      766        6     0.00000   40.12716   29.82178   29.44902
    7291      767        5     0.00000   43.73649   49.92624   42.97888
    7292      767        6     0.00000   43.87188   50.90310   42.89055
    7293      767        6     0.00000   43.90132   49.57004   42.07010
    7294      768        5     0.00000   32.97633   44.71309   32.39432
    7295      768        6     0.00000   33.17875   43.75174   32.27260
    7296      768        6     0.00000   32.06046   44.72912   32.77050


